Si  O Si  O Si  O 
 1.0000000000000000
     5.0277820000000002    0.0000000000000000    0.0000000000000000
     0.0000000000000000    8.7083739999999992    0.0000000000000000
     0.0000000000000000    0.0000000000000000    5.5189180000000002
 Si  O   Si  O   Si  O  
   2   5   1   3   3   4
Cartesian
  1.3140359646100002  2.2759770867699998  0.0000000000000000
  2.3997100707799999  0.0000000000000000  3.6792805063060001
  0.8312582814059999  3.6542949816199997  4.8051397783059997
  0.2351921002869999  1.8071487099189998  1.1258592720000000
  2.7490831002870002  2.5470382900809998  0.7137782216940001
  3.3451492814060000  0.6998920183799999  2.5534157153880002
  1.4474406183070001  1.1072566915389999  4.3930587280000006
  3.8279269646100005  2.0782099132299998  1.8396374936940001
  3.9613316183070011  3.2469303084609997  2.9655022846120001
  0.2351921002869997  6.9012252900810003  0.7137782216940001
  0.8312582814059994  5.0540790183800004  2.5534157153880002
  3.8279269646100000  6.6301640867699998  0.0000000000000000
  4.9136010707800004  4.3541869999999996  3.6792805063060001
  1.3140359646099999  6.4323969132299990  1.8396374936940001
  3.3451492814060009  8.0084819816199992  4.8051397783059997
  1.4474406183070005  7.6011173084609993  2.9655022846120001
  2.7490831002870006  6.1613357099189985  1.1258592720000000
  3.9613316183069993  5.4614436915389994  4.3930587280000006
