Fe 
 1.0000000000000000
     5.7535833600000004    0.0000000000000000    0.0000000000000000
     0.0000000000000000    5.7535833600000004    0.0000000000000000
     0.0000000000000000    0.0000000000000000    5.7535833600000004
 Fe 
  16
Cartesian
  0.0000000000000000  0.0000000000000000  0.0000000000000000
  0.0000000000000000  0.0000000000000000  2.8767916800000002
  0.0000000000000000  2.8767916800000002  0.0000000000000000
  2.8767916800000002  0.0000000000000000  0.0000000000000000
  1.4383958400000001  1.4383958400000001  1.4383958400000001
  0.0000000000000000  2.8767916800000002  2.8767916800000002
  2.8767916800000002  0.0000000000000000  2.8767916800000002
  1.4383958400000001  1.4383958400000001  4.3151875200000003
  2.8767916800000002  2.8767916800000002  0.0000000000000000
  1.4383958400000001  4.3151875200000003  1.4383958400000001
  4.3151875200000003  1.4383958400000001  1.4383958400000001
  2.8767916800000002  2.8767916800000002  2.8767916800000002
  1.4383958400000001  4.3151875200000003  4.3151875200000003
  4.3151875200000003  1.4383958400000001  4.3151875200000003
  4.3151875200000003  4.3151875200000003  1.4383958400000001
  4.3151875200000003  4.3151875200000003  4.3151875200000003
