Fe 
 1.0000000000000000
    14.3839584000000009    0.0000000000000000    0.0000000000000000
     0.0000000000000000   14.3839584000000009    0.0000000000000000
     0.0000000000000000    0.0000000000000000  575.3583360000000084
 Fe 
 10000
Cartesian
  0.0000000000000000  0.0000000000000000  0.0000000000000000
  0.0000000000000000  0.0000000000000000  2.8767916800000002
  0.0000000000000000  0.0000000000000000  5.7535833600000004
  0.0000000000000000  0.0000000000000000  8.6303750400000006
  0.0000000000000000  0.0000000000000000 11.5071667200000007
  0.0000000000000000  0.0000000000000000 14.3839584000000009
  0.0000000000000000  0.0000000000000000 17.2607500800000011
  0.0000000000000000  0.0000000000000000 20.1375417600000013
  0.0000000000000000  0.0000000000000000 23.0143334400000015
  0.0000000000000000  0.0000000000000000 25.8911251200000017
  0.0000000000000000  0.0000000000000000 28.7679168000000018
  0.0000000000000000  0.0000000000000000 31.6447084800000020
  0.0000000000000000  0.0000000000000000 34.5215001600000022
  0.0000000000000000  0.0000000000000000 37.3982918399999988
  0.0000000000000000  0.0000000000000000 40.2750835200000026
  0.0000000000000000  0.0000000000000000 43.1518752000000063
  0.0000000000000000  0.0000000000000000 46.0286668800000029
  0.0000000000000000  0.0000000000000000 48.9054585599999996
  0.0000000000000000  0.0000000000000000 51.7822502400000033
  0.0000000000000000  0.0000000000000000 54.6590419200000071
  0.0000000000000000  0.0000000000000000 57.5358336000000037
  0.0000000000000000  0.0000000000000000 60.4126252800000003
  0.0000000000000000  0.0000000000000000 63.2894169600000041
  0.0000000000000000  0.0000000000000000 66.1662086400000078
  0.0000000000000000  0.0000000000000000 69.0430003200000044
  0.0000000000000000  0.0000000000000000 71.9197920000000011
  0.0000000000000000  0.0000000000000000 74.7965836799999977
  0.0000000000000000  0.0000000000000000 77.6733753600000085
  0.0000000000000000  0.0000000000000000 80.5501670400000052
  0.0000000000000000  0.0000000000000000 83.4269587200000018
  0.0000000000000000  0.0000000000000000 86.3037504000000126
  0.0000000000000000  0.0000000000000000 89.1805420800000093
  0.0000000000000000  0.0000000000000000 92.0573337600000059
  0.0000000000000000  0.0000000000000000 94.9341254400000025
  0.0000000000000000  0.0000000000000000 97.8109171199999992
  0.0000000000000000  0.0000000000000000 100.6877088000000100
  0.0000000000000000  0.0000000000000000 103.5645004800000066
  0.0000000000000000  0.0000000000000000 106.4412921600000033
  0.0000000000000000  0.0000000000000000 109.3180838400000141
  0.0000000000000000  0.0000000000000000 112.1948755200000107
  0.0000000000000000  0.0000000000000000 115.0716672000000074
  0.0000000000000000  0.0000000000000000 117.9484588800000040
  0.0000000000000000  0.0000000000000000 120.8252505600000006
  0.0000000000000000  0.0000000000000000 123.7020422400000115
  0.0000000000000000  0.0000000000000000 126.5788339200000081
  0.0000000000000000  0.0000000000000000 129.4556256000000189
  0.0000000000000000  0.0000000000000000 132.3324172800000156
  0.0000000000000000  0.0000000000000000 135.2092089600000122
  0.0000000000000000  0.0000000000000000 138.0860006400000088
  0.0000000000000000  0.0000000000000000 140.9627923200000055
  0.0000000000000000  0.0000000000000000 143.8395840000000021
  0.0000000000000000  0.0000000000000000 146.7163756799999987
  0.0000000000000000  0.0000000000000000 149.5931673599999954
  0.0000000000000000  0.0000000000000000 152.4699590400000204
  0.0000000000000000  0.0000000000000000 155.3467507200000171
  0.0000000000000000  0.0000000000000000 158.2235424000000137
  0.0000000000000000  0.0000000000000000 161.1003340800000103
  0.0000000000000000  0.0000000000000000 163.9771257600000069
  0.0000000000000000  0.0000000000000000 166.8539174400000036
  0.0000000000000000  0.0000000000000000 169.7307091200000002
  0.0000000000000000  0.0000000000000000 172.6075008000000253
  0.0000000000000000  0.0000000000000000 175.4842924800000219
  0.0000000000000000  0.0000000000000000 178.3610841600000185
  0.0000000000000000  0.0000000000000000 181.2378758400000152
  0.0000000000000000  0.0000000000000000 184.1146675200000118
  0.0000000000000000  0.0000000000000000 186.9914592000000084
  0.0000000000000000  0.0000000000000000 189.8682508800000051
  0.0000000000000000  0.0000000000000000 192.7450425600000017
  0.0000000000000000  0.0000000000000000 195.6218342399999983
  0.0000000000000000  0.0000000000000000 198.4986259200000234
  0.0000000000000000  0.0000000000000000 201.3754176000000200
  0.0000000000000000  0.0000000000000000 204.2522092800000166
  0.0000000000000000  0.0000000000000000 207.1290009600000133
  0.0000000000000000  0.0000000000000000 210.0057926400000099
  0.0000000000000000  0.0000000000000000 212.8825843200000065
  0.0000000000000000  0.0000000000000000 215.7593760000000032
  0.0000000000000000  0.0000000000000000 218.6361676800000282
  0.0000000000000000  0.0000000000000000 221.5129593600000248
  0.0000000000000000  0.0000000000000000 224.3897510400000215
  0.0000000000000000  0.0000000000000000 227.2665427200000181
  0.0000000000000000  0.0000000000000000 230.1433344000000147
  0.0000000000000000  0.0000000000000000 233.0201260800000114
  0.0000000000000000  0.0000000000000000 235.8969177600000080
  0.0000000000000000  0.0000000000000000 238.7737094400000046
  0.0000000000000000  0.0000000000000000 241.6505011200000013
  0.0000000000000000  0.0000000000000000 244.5272928000000263
  0.0000000000000000  0.0000000000000000 247.4040844800000229
  0.0000000000000000  0.0000000000000000 250.2808761600000196
  0.0000000000000000  0.0000000000000000 253.1576678400000162
  0.0000000000000000  0.0000000000000000 256.0344595200000413
  0.0000000000000000  0.0000000000000000 258.9112512000000379
  0.0000000000000000  0.0000000000000000 261.7880428800000345
  0.0000000000000000  0.0000000000000000 264.6648345600000312
  0.0000000000000000  0.0000000000000000 267.5416262400000278
  0.0000000000000000  0.0000000000000000 270.4184179200000244
  0.0000000000000000  0.0000000000000000 273.2952096000000211
  0.0000000000000000  0.0000000000000000 276.1720012800000177
  0.0000000000000000  0.0000000000000000 279.0487929600000143
  0.0000000000000000  0.0000000000000000 281.9255846400000109
  0.0000000000000000  0.0000000000000000 284.8023763200000076
  0.0000000000000000  0.0000000000000000 287.6791680000000042
  0.0000000000000000  0.0000000000000000 290.5559596800000008
  0.0000000000000000  0.0000000000000000 293.4327513599999975
  0.0000000000000000  0.0000000000000000 296.3095430399999941
  0.0000000000000000  0.0000000000000000 299.1863347199999907
  0.0000000000000000  0.0000000000000000 302.0631264000000442
  0.0000000000000000  0.0000000000000000 304.9399180800000408
  0.0000000000000000  0.0000000000000000 307.8167097600000375
  0.0000000000000000  0.0000000000000000 310.6935014400000341
  0.0000000000000000  0.0000000000000000 313.5702931200000307
  0.0000000000000000  0.0000000000000000 316.4470848000000274
  0.0000000000000000  0.0000000000000000 319.3238764800000240
  0.0000000000000000  0.0000000000000000 322.2006681600000206
  0.0000000000000000  0.0000000000000000 325.0774598400000173
  0.0000000000000000  0.0000000000000000 327.9542515200000139
  0.0000000000000000  0.0000000000000000 330.8310432000000105
  0.0000000000000000  0.0000000000000000 333.7078348800000072
  0.0000000000000000  0.0000000000000000 336.5846265600000038
  0.0000000000000000  0.0000000000000000 339.4614182400000004
  0.0000000000000000  0.0000000000000000 342.3382099199999971
  0.0000000000000000  0.0000000000000000 345.2150016000000505
  0.0000000000000000  0.0000000000000000 348.0917932800000472
  0.0000000000000000  0.0000000000000000 350.9685849600000438
  0.0000000000000000  0.0000000000000000 353.8453766400000404
  0.0000000000000000  0.0000000000000000 356.7221683200000371
  0.0000000000000000  0.0000000000000000 359.5989600000000337
  0.0000000000000000  0.0000000000000000 362.4757516800000303
  0.0000000000000000  0.0000000000000000 365.3525433600000270
  0.0000000000000000  0.0000000000000000 368.2293350400000236
  0.0000000000000000  0.0000000000000000 371.1061267200000202
  0.0000000000000000  0.0000000000000000 373.9829184000000168
  0.0000000000000000  0.0000000000000000 376.8597100800000135
  0.0000000000000000  0.0000000000000000 379.7365017600000101
  0.0000000000000000  0.0000000000000000 382.6132934400000067
  0.0000000000000000  0.0000000000000000 385.4900851200000034
  0.0000000000000000  0.0000000000000000 388.3668768000000000
  0.0000000000000000  0.0000000000000000 391.2436684799999966
  0.0000000000000000  0.0000000000000000 394.1204601600000501
  0.0000000000000000  0.0000000000000000 396.9972518400000467
  0.0000000000000000  0.0000000000000000 399.8740435200000434
  0.0000000000000000  0.0000000000000000 402.7508352000000400
  0.0000000000000000  0.0000000000000000 405.6276268800000366
  0.0000000000000000  0.0000000000000000 408.5044185600000333
  0.0000000000000000  0.0000000000000000 411.3812102400000299
  0.0000000000000000  0.0000000000000000 414.2580019200000265
  0.0000000000000000  0.0000000000000000 417.1347936000000232
  0.0000000000000000  0.0000000000000000 420.0115852800000198
  0.0000000000000000  0.0000000000000000 422.8883769600000164
  0.0000000000000000  0.0000000000000000 425.7651686400000131
  0.0000000000000000  0.0000000000000000 428.6419603200000097
  0.0000000000000000  0.0000000000000000 431.5187520000000063
  0.0000000000000000  0.0000000000000000 434.3955436800000030
  0.0000000000000000  0.0000000000000000 437.2723353600000564
  0.0000000000000000  0.0000000000000000 440.1491270400000531
  0.0000000000000000  0.0000000000000000 443.0259187200000497
  0.0000000000000000  0.0000000000000000 445.9027104000000463
  0.0000000000000000  0.0000000000000000 448.7795020800000430
  0.0000000000000000  0.0000000000000000 451.6562937600000396
  0.0000000000000000  0.0000000000000000 454.5330854400000362
  0.0000000000000000  0.0000000000000000 457.4098771200000328
  0.0000000000000000  0.0000000000000000 460.2866688000000295
  0.0000000000000000  0.0000000000000000 463.1634604800000261
  0.0000000000000000  0.0000000000000000 466.0402521600000227
  0.0000000000000000  0.0000000000000000 468.9170438400000194
  0.0000000000000000  0.0000000000000000 471.7938355200000160
  0.0000000000000000  0.0000000000000000 474.6706272000000126
  0.0000000000000000  0.0000000000000000 477.5474188800000093
  0.0000000000000000  0.0000000000000000 480.4242105600000059
  0.0000000000000000  0.0000000000000000 483.3010022400000025
  0.0000000000000000  0.0000000000000000 486.1777939200000560
  0.0000000000000000  0.0000000000000000 489.0545856000000526
  0.0000000000000000  0.0000000000000000 491.9313772800000493
  0.0000000000000000  0.0000000000000000 494.8081689600000459
  0.0000000000000000  0.0000000000000000 497.6849606400000425
  0.0000000000000000  0.0000000000000000 500.5617523200000392
  0.0000000000000000  0.0000000000000000 503.4385440000000358
  0.0000000000000000  0.0000000000000000 506.3153356800000324
  0.0000000000000000  0.0000000000000000 509.1921273600000291
  0.0000000000000000  0.0000000000000000 512.0689190400000825
  0.0000000000000000  0.0000000000000000 514.9457107200000792
  0.0000000000000000  0.0000000000000000 517.8225024000000758
  0.0000000000000000  0.0000000000000000 520.6992940800000724
  0.0000000000000000  0.0000000000000000 523.5760857600000691
  0.0000000000000000  0.0000000000000000 526.4528774400000657
  0.0000000000000000  0.0000000000000000 529.3296691200000623
  0.0000000000000000  0.0000000000000000 532.2064608000000590
  0.0000000000000000  0.0000000000000000 535.0832524800000556
  0.0000000000000000  0.0000000000000000 537.9600441600000522
  0.0000000000000000  0.0000000000000000 540.8368358400000488
  0.0000000000000000  0.0000000000000000 543.7136275200000455
  0.0000000000000000  0.0000000000000000 546.5904192000000421
  0.0000000000000000  0.0000000000000000 549.4672108800000387
  0.0000000000000000  0.0000000000000000 552.3440025600000354
  0.0000000000000000  0.0000000000000000 555.2207942400000320
  0.0000000000000000  0.0000000000000000 558.0975859200000286
  0.0000000000000000  0.0000000000000000 560.9743776000000253
  0.0000000000000000  0.0000000000000000 563.8511692800000219
  0.0000000000000000  0.0000000000000000 566.7279609600000185
  0.0000000000000000  0.0000000000000000 569.6047526400000152
  0.0000000000000000  0.0000000000000000 572.4815443200000118
  0.0000000000000000  2.8767916800000002  0.0000000000000000
  2.8767916800000002  0.0000000000000000  0.0000000000000000
  1.4383958400000001  1.4383958400000001  1.4383958400000001
  0.0000000000000000  2.8767916800000002  2.8767916800000002
  2.8767916800000002  0.0000000000000000  2.8767916800000002
  1.4383958400000001  1.4383958400000001  4.3151875200000003
  0.0000000000000000  2.8767916800000002  5.7535833600000004
  2.8767916800000002  0.0000000000000000  5.7535833600000004
  1.4383958400000001  1.4383958400000001  7.1919792000000005
  0.0000000000000000  2.8767916800000002  8.6303750400000006
  2.8767916800000002  0.0000000000000000  8.6303750400000006
  1.4383958400000001  1.4383958400000001 10.0687708800000006
  0.0000000000000000  2.8767916800000002 11.5071667200000007
  2.8767916800000002  0.0000000000000000 11.5071667200000007
  1.4383958400000001  1.4383958400000001 12.9455625600000008
  0.0000000000000000  2.8767916800000002 14.3839584000000009
  2.8767916800000002  0.0000000000000000 14.3839584000000009
  1.4383958400000001  1.4383958400000001 15.8223542400000010
  0.0000000000000000  2.8767916800000002 17.2607500800000011
  2.8767916800000002  0.0000000000000000 17.2607500800000011
  1.4383958400000001  1.4383958400000001 18.6991459199999994
  0.0000000000000000  2.8767916800000002 20.1375417600000013
  2.8767916800000002  0.0000000000000000 20.1375417600000013
  1.4383958400000001  1.4383958400000001 21.5759376000000032
  0.0000000000000000  2.8767916800000002 23.0143334400000015
  2.8767916800000002  0.0000000000000000 23.0143334400000015
  1.4383958400000001  1.4383958400000001 24.4527292799999998
  0.0000000000000000  2.8767916800000002 25.8911251200000017
  2.8767916800000002  0.0000000000000000 25.8911251200000017
  1.4383958400000001  1.4383958400000001 27.3295209600000035
  0.0000000000000000  2.8767916800000002 28.7679168000000018
  2.8767916800000002  0.0000000000000000 28.7679168000000018
  1.4383958400000001  1.4383958400000001 30.2063126400000002
  0.0000000000000000  2.8767916800000002 31.6447084800000020
  2.8767916800000002  0.0000000000000000 31.6447084800000020
  1.4383958400000001  1.4383958400000001 33.0831043200000039
  0.0000000000000000  2.8767916800000002 34.5215001600000022
  2.8767916800000002  0.0000000000000000 34.5215001600000022
  1.4383958400000001  1.4383958400000001 35.9598960000000005
  0.0000000000000000  2.8767916800000002 37.3982918399999988
  2.8767916800000002  0.0000000000000000 37.3982918399999988
  1.4383958400000001  1.4383958400000001 38.8366876800000043
  0.0000000000000000  2.8767916800000002 40.2750835200000026
  2.8767916800000002  0.0000000000000000 40.2750835200000026
  1.4383958400000001  1.4383958400000001 41.7134793600000009
  0.0000000000000000  2.8767916800000002 43.1518752000000063
  2.8767916800000002  0.0000000000000000 43.1518752000000063
  1.4383958400000001  1.4383958400000001 44.5902710400000046
  0.0000000000000000  2.8767916800000002 46.0286668800000029
  2.8767916800000002  0.0000000000000000 46.0286668800000029
  1.4383958400000001  1.4383958400000001 47.4670627200000013
  0.0000000000000000  2.8767916800000002 48.9054585599999996
  2.8767916800000002  0.0000000000000000 48.9054585599999996
  1.4383958400000001  1.4383958400000001 50.3438544000000050
  0.0000000000000000  2.8767916800000002 51.7822502400000033
  2.8767916800000002  0.0000000000000000 51.7822502400000033
  1.4383958400000001  1.4383958400000001 53.2206460800000016
  0.0000000000000000  2.8767916800000002 54.6590419200000071
  2.8767916800000002  0.0000000000000000 54.6590419200000071
  1.4383958400000001  1.4383958400000001 56.0974377600000054
  0.0000000000000000  2.8767916800000002 57.5358336000000037
  2.8767916800000002  0.0000000000000000 57.5358336000000037
  1.4383958400000001  1.4383958400000001 58.9742294400000020
  0.0000000000000000  2.8767916800000002 60.4126252800000003
  2.8767916800000002  0.0000000000000000 60.4126252800000003
  1.4383958400000001  1.4383958400000001 61.8510211200000057
  0.0000000000000000  2.8767916800000002 63.2894169600000041
  2.8767916800000002  0.0000000000000000 63.2894169600000041
  1.4383958400000001  1.4383958400000001 64.7278128000000095
  0.0000000000000000  2.8767916800000002 66.1662086400000078
  2.8767916800000002  0.0000000000000000 66.1662086400000078
  1.4383958400000001  1.4383958400000001 67.6046044800000061
  0.0000000000000000  2.8767916800000002 69.0430003200000044
  2.8767916800000002  0.0000000000000000 69.0430003200000044
  1.4383958400000001  1.4383958400000001 70.4813961600000027
  0.0000000000000000  2.8767916800000002 71.9197920000000011
  2.8767916800000002  0.0000000000000000 71.9197920000000011
  1.4383958400000001  1.4383958400000001 73.3581878399999994
  0.0000000000000000  2.8767916800000002 74.7965836799999977
  2.8767916800000002  0.0000000000000000 74.7965836799999977
  1.4383958400000001  1.4383958400000001 76.2349795200000102
  0.0000000000000000  2.8767916800000002 77.6733753600000085
  2.8767916800000002  0.0000000000000000 77.6733753600000085
  1.4383958400000001  1.4383958400000001 79.1117712000000068
  0.0000000000000000  2.8767916800000002 80.5501670400000052
  2.8767916800000002  0.0000000000000000 80.5501670400000052
  1.4383958400000001  1.4383958400000001 81.9885628800000035
  0.0000000000000000  2.8767916800000002 83.4269587200000018
  2.8767916800000002  0.0000000000000000 83.4269587200000018
  1.4383958400000001  1.4383958400000001 84.8653545600000001
  0.0000000000000000  2.8767916800000002 86.3037504000000126
  2.8767916800000002  0.0000000000000000 86.3037504000000126
  1.4383958400000001  1.4383958400000001 87.7421462400000109
  0.0000000000000000  2.8767916800000002 89.1805420800000093
  2.8767916800000002  0.0000000000000000 89.1805420800000093
  1.4383958400000001  1.4383958400000001 90.6189379200000076
  0.0000000000000000  2.8767916800000002 92.0573337600000059
  2.8767916800000002  0.0000000000000000 92.0573337600000059
  1.4383958400000001  1.4383958400000001 93.4957296000000042
  0.0000000000000000  2.8767916800000002 94.9341254400000025
  2.8767916800000002  0.0000000000000000 94.9341254400000025
  1.4383958400000001  1.4383958400000001 96.3725212800000008
  0.0000000000000000  2.8767916800000002 97.8109171199999992
  2.8767916800000002  0.0000000000000000 97.8109171199999992
  1.4383958400000001  1.4383958400000001 99.2493129600000117
  0.0000000000000000  2.8767916800000002 100.6877088000000100
  2.8767916800000002  0.0000000000000000 100.6877088000000100
  1.4383958400000001  1.4383958400000001 102.1261046400000083
  0.0000000000000000  2.8767916800000002 103.5645004800000066
  2.8767916800000002  0.0000000000000000 103.5645004800000066
  1.4383958400000001  1.4383958400000001 105.0028963200000049
  0.0000000000000000  2.8767916800000002 106.4412921600000033
  2.8767916800000002  0.0000000000000000 106.4412921600000033
  1.4383958400000001  1.4383958400000001 107.8796880000000016
  0.0000000000000000  2.8767916800000002 109.3180838400000141
  2.8767916800000002  0.0000000000000000 109.3180838400000141
  1.4383958400000001  1.4383958400000001 110.7564796800000124
  0.0000000000000000  2.8767916800000002 112.1948755200000107
  2.8767916800000002  0.0000000000000000 112.1948755200000107
  1.4383958400000001  1.4383958400000001 113.6332713600000091
  0.0000000000000000  2.8767916800000002 115.0716672000000074
  2.8767916800000002  0.0000000000000000 115.0716672000000074
  1.4383958400000001  1.4383958400000001 116.5100630400000057
  0.0000000000000000  2.8767916800000002 117.9484588800000040
  2.8767916800000002  0.0000000000000000 117.9484588800000040
  1.4383958400000001  1.4383958400000001 119.3868547200000023
  0.0000000000000000  2.8767916800000002 120.8252505600000006
  2.8767916800000002  0.0000000000000000 120.8252505600000006
  1.4383958400000001  1.4383958400000001 122.2636464000000132
  0.0000000000000000  2.8767916800000002 123.7020422400000115
  2.8767916800000002  0.0000000000000000 123.7020422400000115
  1.4383958400000001  1.4383958400000001 125.1404380800000098
  0.0000000000000000  2.8767916800000002 126.5788339200000081
  2.8767916800000002  0.0000000000000000 126.5788339200000081
  1.4383958400000001  1.4383958400000001 128.0172297600000206
  0.0000000000000000  2.8767916800000002 129.4556256000000189
  2.8767916800000002  0.0000000000000000 129.4556256000000189
  1.4383958400000001  1.4383958400000001 130.8940214400000173
  0.0000000000000000  2.8767916800000002 132.3324172800000156
  2.8767916800000002  0.0000000000000000 132.3324172800000156
  1.4383958400000001  1.4383958400000001 133.7708131200000139
  0.0000000000000000  2.8767916800000002 135.2092089600000122
  2.8767916800000002  0.0000000000000000 135.2092089600000122
  1.4383958400000001  1.4383958400000001 136.6476048000000105
  0.0000000000000000  2.8767916800000002 138.0860006400000088
  2.8767916800000002  0.0000000000000000 138.0860006400000088
  1.4383958400000001  1.4383958400000001 139.5243964800000072
  0.0000000000000000  2.8767916800000002 140.9627923200000055
  2.8767916800000002  0.0000000000000000 140.9627923200000055
  1.4383958400000001  1.4383958400000001 142.4011881600000038
  0.0000000000000000  2.8767916800000002 143.8395840000000021
  2.8767916800000002  0.0000000000000000 143.8395840000000021
  1.4383958400000001  1.4383958400000001 145.2779798400000004
  0.0000000000000000  2.8767916800000002 146.7163756799999987
  2.8767916800000002  0.0000000000000000 146.7163756799999987
  1.4383958400000001  1.4383958400000001 148.1547715199999971
  0.0000000000000000  2.8767916800000002 149.5931673599999954
  2.8767916800000002  0.0000000000000000 149.5931673599999954
  1.4383958400000001  1.4383958400000001 151.0315632000000221
  0.0000000000000000  2.8767916800000002 152.4699590400000204
  2.8767916800000002  0.0000000000000000 152.4699590400000204
  1.4383958400000001  1.4383958400000001 153.9083548800000187
  0.0000000000000000  2.8767916800000002 155.3467507200000171
  2.8767916800000002  0.0000000000000000 155.3467507200000171
  1.4383958400000001  1.4383958400000001 156.7851465600000154
  0.0000000000000000  2.8767916800000002 158.2235424000000137
  2.8767916800000002  0.0000000000000000 158.2235424000000137
  1.4383958400000001  1.4383958400000001 159.6619382400000120
  0.0000000000000000  2.8767916800000002 161.1003340800000103
  2.8767916800000002  0.0000000000000000 161.1003340800000103
  1.4383958400000001  1.4383958400000001 162.5387299200000086
  0.0000000000000000  2.8767916800000002 163.9771257600000069
  2.8767916800000002  0.0000000000000000 163.9771257600000069
  1.4383958400000001  1.4383958400000001 165.4155216000000053
  0.0000000000000000  2.8767916800000002 166.8539174400000036
  2.8767916800000002  0.0000000000000000 166.8539174400000036
  1.4383958400000001  1.4383958400000001 168.2923132800000019
  0.0000000000000000  2.8767916800000002 169.7307091200000002
  2.8767916800000002  0.0000000000000000 169.7307091200000002
  1.4383958400000001  1.4383958400000001 171.1691049599999985
  0.0000000000000000  2.8767916800000002 172.6075008000000253
  2.8767916800000002  0.0000000000000000 172.6075008000000253
  1.4383958400000001  1.4383958400000001 174.0458966400000236
  0.0000000000000000  2.8767916800000002 175.4842924800000219
  2.8767916800000002  0.0000000000000000 175.4842924800000219
  1.4383958400000001  1.4383958400000001 176.9226883200000202
  0.0000000000000000  2.8767916800000002 178.3610841600000185
  2.8767916800000002  0.0000000000000000 178.3610841600000185
  1.4383958400000001  1.4383958400000001 179.7994800000000168
  0.0000000000000000  2.8767916800000002 181.2378758400000152
  2.8767916800000002  0.0000000000000000 181.2378758400000152
  1.4383958400000001  1.4383958400000001 182.6762716800000135
  0.0000000000000000  2.8767916800000002 184.1146675200000118
  2.8767916800000002  0.0000000000000000 184.1146675200000118
  1.4383958400000001  1.4383958400000001 185.5530633600000101
  0.0000000000000000  2.8767916800000002 186.9914592000000084
  2.8767916800000002  0.0000000000000000 186.9914592000000084
  1.4383958400000001  1.4383958400000001 188.4298550400000067
  0.0000000000000000  2.8767916800000002 189.8682508800000051
  2.8767916800000002  0.0000000000000000 189.8682508800000051
  1.4383958400000001  1.4383958400000001 191.3066467200000034
  0.0000000000000000  2.8767916800000002 192.7450425600000017
  2.8767916800000002  0.0000000000000000 192.7450425600000017
  1.4383958400000001  1.4383958400000001 194.1834384000000000
  0.0000000000000000  2.8767916800000002 195.6218342399999983
  2.8767916800000002  0.0000000000000000 195.6218342399999983
  1.4383958400000001  1.4383958400000001 197.0602300800000251
  0.0000000000000000  2.8767916800000002 198.4986259200000234
  2.8767916800000002  0.0000000000000000 198.4986259200000234
  1.4383958400000001  1.4383958400000001 199.9370217600000217
  0.0000000000000000  2.8767916800000002 201.3754176000000200
  2.8767916800000002  0.0000000000000000 201.3754176000000200
  1.4383958400000001  1.4383958400000001 202.8138134400000183
  0.0000000000000000  2.8767916800000002 204.2522092800000166
  2.8767916800000002  0.0000000000000000 204.2522092800000166
  1.4383958400000001  1.4383958400000001 205.6906051200000149
  0.0000000000000000  2.8767916800000002 207.1290009600000133
  2.8767916800000002  0.0000000000000000 207.1290009600000133
  1.4383958400000001  1.4383958400000001 208.5673968000000116
  0.0000000000000000  2.8767916800000002 210.0057926400000099
  2.8767916800000002  0.0000000000000000 210.0057926400000099
  1.4383958400000001  1.4383958400000001 211.4441884800000082
  0.0000000000000000  2.8767916800000002 212.8825843200000065
  2.8767916800000002  0.0000000000000000 212.8825843200000065
  1.4383958400000001  1.4383958400000001 214.3209801600000048
  0.0000000000000000  2.8767916800000002 215.7593760000000032
  2.8767916800000002  0.0000000000000000 215.7593760000000032
  1.4383958400000001  1.4383958400000001 217.1977718400000015
  0.0000000000000000  2.8767916800000002 218.6361676800000282
  2.8767916800000002  0.0000000000000000 218.6361676800000282
  1.4383958400000001  1.4383958400000001 220.0745635200000265
  0.0000000000000000  2.8767916800000002 221.5129593600000248
  2.8767916800000002  0.0000000000000000 221.5129593600000248
  1.4383958400000001  1.4383958400000001 222.9513552000000232
  0.0000000000000000  2.8767916800000002 224.3897510400000215
  2.8767916800000002  0.0000000000000000 224.3897510400000215
  1.4383958400000001  1.4383958400000001 225.8281468800000198
  0.0000000000000000  2.8767916800000002 227.2665427200000181
  2.8767916800000002  0.0000000000000000 227.2665427200000181
  1.4383958400000001  1.4383958400000001 228.7049385600000164
  0.0000000000000000  2.8767916800000002 230.1433344000000147
  2.8767916800000002  0.0000000000000000 230.1433344000000147
  1.4383958400000001  1.4383958400000001 231.5817302400000131
  0.0000000000000000  2.8767916800000002 233.0201260800000114
  2.8767916800000002  0.0000000000000000 233.0201260800000114
  1.4383958400000001  1.4383958400000001 234.4585219200000097
  0.0000000000000000  2.8767916800000002 235.8969177600000080
  2.8767916800000002  0.0000000000000000 235.8969177600000080
  1.4383958400000001  1.4383958400000001 237.3353136000000063
  0.0000000000000000  2.8767916800000002 238.7737094400000046
  2.8767916800000002  0.0000000000000000 238.7737094400000046
  1.4383958400000001  1.4383958400000001 240.2121052800000029
  0.0000000000000000  2.8767916800000002 241.6505011200000013
  2.8767916800000002  0.0000000000000000 241.6505011200000013
  1.4383958400000001  1.4383958400000001 243.0888969600000280
  0.0000000000000000  2.8767916800000002 244.5272928000000263
  2.8767916800000002  0.0000000000000000 244.5272928000000263
  1.4383958400000001  1.4383958400000001 245.9656886400000246
  0.0000000000000000  2.8767916800000002 247.4040844800000229
  2.8767916800000002  0.0000000000000000 247.4040844800000229
  1.4383958400000001  1.4383958400000001 248.8424803200000213
  0.0000000000000000  2.8767916800000002 250.2808761600000196
  2.8767916800000002  0.0000000000000000 250.2808761600000196
  1.4383958400000001  1.4383958400000001 251.7192720000000179
  0.0000000000000000  2.8767916800000002 253.1576678400000162
  2.8767916800000002  0.0000000000000000 253.1576678400000162
  1.4383958400000001  1.4383958400000001 254.5960636800000145
  0.0000000000000000  2.8767916800000002 256.0344595200000413
  2.8767916800000002  0.0000000000000000 256.0344595200000413
  1.4383958400000001  1.4383958400000001 257.4728553600000396
  0.0000000000000000  2.8767916800000002 258.9112512000000379
  2.8767916800000002  0.0000000000000000 258.9112512000000379
  1.4383958400000001  1.4383958400000001 260.3496470400000362
  0.0000000000000000  2.8767916800000002 261.7880428800000345
  2.8767916800000002  0.0000000000000000 261.7880428800000345
  1.4383958400000001  1.4383958400000001 263.2264387200000328
  0.0000000000000000  2.8767916800000002 264.6648345600000312
  2.8767916800000002  0.0000000000000000 264.6648345600000312
  1.4383958400000001  1.4383958400000001 266.1032304000000295
  0.0000000000000000  2.8767916800000002 267.5416262400000278
  2.8767916800000002  0.0000000000000000 267.5416262400000278
  1.4383958400000001  1.4383958400000001 268.9800220800000261