Fe 
 1.0000000000000000
    46.0286668800000029    0.0000000000000000    0.0000000000000000
     0.0000000000000000   46.0286668800000029    0.0000000000000000
     0.0000000000000000    0.0000000000000000   46.0286668800000029
 Fe 
 8192
Cartesian
  0.0000000000000000  0.0000000000000000  0.0000000000000000
  0.0000000000000000  0.0000000000000000  2.8767916800000002
  0.0000000000000000  0.0000000000000000  5.7535833600000004
  0.0000000000000000  0.0000000000000000  8.6303750400000006
  0.0000000000000000  0.0000000000000000 11.5071667200000007
  0.0000000000000000  0.0000000000000000 14.3839584000000009
  0.0000000000000000  0.0000000000000000 17.2607500800000011
  0.0000000000000000  0.0000000000000000 20.1375417600000013
  0.0000000000000000  0.0000000000000000 23.0143334400000015
  0.0000000000000000  0.0000000000000000 25.8911251200000017
  0.0000000000000000  0.0000000000000000 28.7679168000000018
  0.0000000000000000  0.0000000000000000 31.6447084800000020
  0.0000000000000000  0.0000000000000000 34.5215001600000022
  0.0000000000000000  0.0000000000000000 37.3982918399999988
  0.0000000000000000  0.0000000000000000 40.2750835200000026
  0.0000000000000000  0.0000000000000000 43.1518752000000063
  0.0000000000000000  2.8767916800000002  0.0000000000000000
  2.8767916800000002  0.0000000000000000  0.0000000000000000
  1.4383958400000001  1.4383958400000001  1.4383958400000001
  0.0000000000000000  2.8767916800000002  2.8767916800000002
  2.8767916800000002  0.0000000000000000  2.8767916800000002
  1.4383958400000001  1.4383958400000001  4.3151875200000003
  0.0000000000000000  2.8767916800000002  5.7535833600000004
  2.8767916800000002  0.0000000000000000  5.7535833600000004
  1.4383958400000001  1.4383958400000001  7.1919792000000005
  0.0000000000000000  2.8767916800000002  8.6303750400000006
  2.8767916800000002  0.0000000000000000  8.6303750400000006
  1.4383958400000001  1.4383958400000001 10.0687708800000006
  0.0000000000000000  2.8767916800000002 11.5071667200000007
  2.8767916800000002  0.0000000000000000 11.5071667200000007
  1.4383958400000001  1.4383958400000001 12.9455625600000008
  0.0000000000000000  2.8767916800000002 14.3839584000000009
  2.8767916800000002  0.0000000000000000 14.3839584000000009
  1.4383958400000001  1.4383958400000001 15.8223542400000010
  0.0000000000000000  2.8767916800000002 17.2607500800000011
  2.8767916800000002  0.0000000000000000 17.2607500800000011
  1.4383958400000001  1.4383958400000001 18.6991459199999994
  0.0000000000000000  2.8767916800000002 20.1375417600000013
  2.8767916800000002  0.0000000000000000 20.1375417600000013
  1.4383958400000001  1.4383958400000001 21.5759376000000032
  0.0000000000000000  2.8767916800000002 23.0143334400000015
  2.8767916800000002  0.0000000000000000 23.0143334400000015
  1.4383958400000001  1.4383958400000001 24.4527292799999998
  0.0000000000000000  2.8767916800000002 25.8911251200000017
  2.8767916800000002  0.0000000000000000 25.8911251200000017
  1.4383958400000001  1.4383958400000001 27.3295209600000035
  0.0000000000000000  2.8767916800000002 28.7679168000000018
  2.8767916800000002  0.0000000000000000 28.7679168000000018
  1.4383958400000001  1.4383958400000001 30.2063126400000002
  0.0000000000000000  2.8767916800000002 31.6447084800000020
  2.8767916800000002  0.0000000000000000 31.6447084800000020
  1.4383958400000001  1.4383958400000001 33.0831043200000039
  0.0000000000000000  2.8767916800000002 34.5215001600000022
  2.8767916800000002  0.0000000000000000 34.5215001600000022
  1.4383958400000001  1.4383958400000001 35.9598960000000005
  0.0000000000000000  2.8767916800000002 37.3982918399999988
  2.8767916800000002  0.0000000000000000 37.3982918399999988
  1.4383958400000001  1.4383958400000001 38.8366876800000043
  0.0000000000000000  2.8767916800000002 40.2750835200000026
  2.8767916800000002  0.0000000000000000 40.2750835200000026
  1.4383958400000001  1.4383958400000001 41.7134793600000009
  0.0000000000000000  2.8767916800000002 43.1518752000000063
  2.8767916800000002  0.0000000000000000 43.1518752000000063
  1.4383958400000001  1.4383958400000001 44.5902710400000046
  0.0000000000000000  5.7535833600000004  0.0000000000000000
  2.8767916800000002  2.8767916800000002  0.0000000000000000
  1.4383958400000001  4.3151875200000003  1.4383958400000001
  0.0000000000000000  5.7535833600000004  2.8767916800000002
  5.7535833600000004  0.0000000000000000  0.0000000000000000
  4.3151875200000003  1.4383958400000001  1.4383958400000001
  2.8767916800000002  2.8767916800000002  2.8767916800000002
  1.4383958400000001  4.3151875200000003  4.3151875200000003
  0.0000000000000000  5.7535833600000004  5.7535833600000004
  5.7535833600000004  0.0000000000000000  2.8767916800000002
  4.3151875200000003  1.4383958400000001  4.3151875200000003
  2.8767916800000002  2.8767916800000002  5.7535833600000004
  1.4383958400000001  4.3151875200000003  7.1919792000000005
  0.0000000000000000  5.7535833600000004  8.6303750400000006
  5.7535833600000004  0.0000000000000000  5.7535833600000004
  4.3151875200000003  1.4383958400000001  7.1919792000000005
  2.8767916800000002  2.8767916800000002  8.6303750400000006
  1.4383958400000001  4.3151875200000003 10.0687708800000006
  0.0000000000000000  5.7535833600000004 11.5071667200000007
  5.7535833600000004  0.0000000000000000  8.6303750400000006
  4.3151875200000003  1.4383958400000001 10.0687708800000006
  2.8767916800000002  2.8767916800000002 11.5071667200000007
  1.4383958400000001  4.3151875200000003 12.9455625600000008
  0.0000000000000000  5.7535833600000004 14.3839584000000009
  5.7535833600000004  0.0000000000000000 11.5071667200000007
  4.3151875200000003  1.4383958400000001 12.9455625600000008
  2.8767916800000002  2.8767916800000002 14.3839584000000009
  1.4383958400000001  4.3151875200000003 15.8223542400000010
  0.0000000000000000  5.7535833600000004 17.2607500800000011
  5.7535833600000004  0.0000000000000000 14.3839584000000009
  4.3151875200000003  1.4383958400000001 15.8223542400000010
  2.8767916800000002  2.8767916800000002 17.2607500800000011
  1.4383958400000001  4.3151875200000003 18.6991459199999994
  0.0000000000000000  5.7535833600000004 20.1375417600000013
  5.7535833600000004  0.0000000000000000 17.2607500800000011
  4.3151875200000003  1.4383958400000001 18.6991459199999994
  2.8767916800000002  2.8767916800000002 20.1375417600000013
  1.4383958400000001  4.3151875200000003 21.5759376000000032
  0.0000000000000000  5.7535833600000004 23.0143334400000015
  5.7535833600000004  0.0000000000000000 20.1375417600000013
  4.3151875200000003  1.4383958400000001 21.5759376000000032
  2.8767916800000002  2.8767916800000002 23.0143334400000015
  1.4383958400000001  4.3151875200000003 24.4527292799999998
  0.0000000000000000  5.7535833600000004 25.8911251200000017
  5.7535833600000004  0.0000000000000000 23.0143334400000015
  4.3151875200000003  1.4383958400000001 24.4527292799999998
  2.8767916800000002  2.8767916800000002 25.8911251200000017
  1.4383958400000001  4.3151875200000003 27.3295209600000035
  0.0000000000000000  5.7535833600000004 28.7679168000000018
  5.7535833600000004  0.0000000000000000 25.8911251200000017
  4.3151875200000003  1.4383958400000001 27.3295209600000035
  2.8767916800000002  2.8767916800000002 28.7679168000000018
  1.4383958400000001  4.3151875200000003 30.2063126400000002
  0.0000000000000000  5.7535833600000004 31.6447084800000020
  5.7535833600000004  0.0000000000000000 28.7679168000000018
  4.3151875200000003  1.4383958400000001 30.2063126400000002
  2.8767916800000002  2.8767916800000002 31.6447084800000020
  1.4383958400000001  4.3151875200000003 33.0831043200000039
  0.0000000000000000  5.7535833600000004 34.5215001600000022
  5.7535833600000004  0.0000000000000000 31.6447084800000020
  4.3151875200000003  1.4383958400000001 33.0831043200000039
  2.8767916800000002  2.8767916800000002 34.5215001600000022
  1.4383958400000001  4.3151875200000003 35.9598960000000005
  0.0000000000000000  5.7535833600000004 37.3982918399999988
  5.7535833600000004  0.0000000000000000 34.5215001600000022
  4.3151875200000003  1.4383958400000001 35.9598960000000005
  2.8767916800000002  2.8767916800000002 37.3982918399999988
  1.4383958400000001  4.3151875200000003 38.8366876800000043
  0.0000000000000000  5.7535833600000004 40.2750835200000026
  5.7535833600000004  0.0000000000000000 37.3982918399999988
  4.3151875200000003  1.4383958400000001 38.8366876800000043
  2.8767916800000002  2.8767916800000002 40.2750835200000026
  1.4383958400000001  4.3151875200000003 41.7134793600000009
  0.0000000000000000  5.7535833600000004 43.1518752000000063
  5.7535833600000004  0.0000000000000000 40.2750835200000026
  4.3151875200000003  1.4383958400000001 41.7134793600000009
  2.8767916800000002  2.8767916800000002 43.1518752000000063
  1.4383958400000001  4.3151875200000003 44.5902710400000046
  5.7535833600000004  0.0000000000000000 43.1518752000000063
  4.3151875200000003  1.4383958400000001 44.5902710400000046
  0.0000000000000000  8.6303750400000006  0.0000000000000000
  2.8767916800000002  5.7535833600000004  0.0000000000000000
  1.4383958400000001  7.1919792000000005  1.4383958400000001
  0.0000000000000000  8.6303750400000006  2.8767916800000002
  5.7535833600000004  2.8767916800000002  0.0000000000000000
  4.3151875200000003  4.3151875200000003  1.4383958400000001
  2.8767916800000002  5.7535833600000004  2.8767916800000002
  1.4383958400000001  7.1919792000000005  4.3151875200000003
  0.0000000000000000  8.6303750400000006  5.7535833600000004
  8.6303750400000006  0.0000000000000000  0.0000000000000000
  7.1919792000000005  1.4383958400000001  1.4383958400000001
  5.7535833600000004  2.8767916800000002  2.8767916800000002
  4.3151875200000003  4.3151875200000003  4.3151875200000003
  2.8767916800000002  5.7535833600000004  5.7535833600000004
  1.4383958400000001  7.1919792000000005  7.1919792000000005
  0.0000000000000000  8.6303750400000006  8.6303750400000006
  8.6303750400000006  0.0000000000000000  2.8767916800000002
  7.1919792000000005  1.4383958400000001  4.3151875200000003
  5.7535833600000004  2.8767916800000002  5.7535833600000004
  4.3151875200000003  4.3151875200000003  7.1919792000000005
  2.8767916800000002  5.7535833600000004  8.6303750400000006
  1.4383958400000001  7.1919792000000005 10.0687708800000006
  0.0000000000000000  8.6303750400000006 11.5071667200000007
  8.6303750400000006  0.0000000000000000  5.7535833600000004
  7.1919792000000005  1.4383958400000001  7.1919792000000005
  5.7535833600000004  2.8767916800000002  8.6303750400000006
  4.3151875200000003  4.3151875200000003 10.0687708800000006
  2.8767916800000002  5.7535833600000004 11.5071667200000007
  1.4383958400000001  7.1919792000000005 12.9455625600000008
  0.0000000000000000  8.6303750400000006 14.3839584000000009
  8.6303750400000006  0.0000000000000000  8.6303750400000006
  7.1919792000000005  1.4383958400000001 10.0687708800000006
  5.7535833600000004  2.8767916800000002 11.5071667200000007
  4.3151875200000003  4.3151875200000003 12.9455625600000008
  2.8767916800000002  5.7535833600000004 14.3839584000000009
  1.4383958400000001  7.1919792000000005 15.8223542400000010
  0.0000000000000000  8.6303750400000006 17.2607500800000011
  8.6303750400000006  0.0000000000000000 11.5071667200000007
  7.1919792000000005  1.4383958400000001 12.9455625600000008
  5.7535833600000004  2.8767916800000002 14.3839584000000009
  4.3151875200000003  4.3151875200000003 15.8223542400000010
  2.8767916800000002  5.7535833600000004 17.2607500800000011
  1.4383958400000001  7.1919792000000005 18.6991459199999994
  0.0000000000000000  8.6303750400000006 20.1375417600000013
  8.6303750400000006  0.0000000000000000 14.3839584000000009
  7.1919792000000005  1.4383958400000001 15.8223542400000010
  5.7535833600000004  2.8767916800000002 17.2607500800000011
  4.3151875200000003  4.3151875200000003 18.6991459199999994
  2.8767916800000002  5.7535833600000004 20.1375417600000013
  1.4383958400000001  7.1919792000000005 21.5759376000000032
  0.0000000000000000  8.6303750400000006 23.0143334400000015
  8.6303750400000006  0.0000000000000000 17.2607500800000011
  7.1919792000000005  1.4383958400000001 18.6991459199999994
  5.7535833600000004  2.8767916800000002 20.1375417600000013
  4.3151875200000003  4.3151875200000003 21.5759376000000032
  2.8767916800000002  5.7535833600000004 23.0143334400000015
  1.4383958400000001  7.1919792000000005 24.4527292799999998
  0.0000000000000000  8.6303750400000006 25.8911251200000017
  8.6303750400000006  0.0000000000000000 20.1375417600000013
  7.1919792000000005  1.4383958400000001 21.5759376000000032
  5.7535833600000004  2.8767916800000002 23.0143334400000015
  4.3151875200000003  4.3151875200000003 24.4527292799999998
  2.8767916800000002  5.7535833600000004 25.8911251200000017
  1.4383958400000001  7.1919792000000005 27.3295209600000035
  0.0000000000000000  8.6303750400000006 28.7679168000000018
  8.6303750400000006  0.0000000000000000 23.0143334400000015
  7.1919792000000005  1.4383958400000001 24.4527292799999998
  5.7535833600000004  2.8767916800000002 25.8911251200000017
  4.3151875200000003  4.3151875200000003 27.3295209600000035
  2.8767916800000002  5.7535833600000004 28.7679168000000018
  1.4383958400000001  7.1919792000000005 30.2063126400000002
  0.0000000000000000  8.6303750400000006 31.6447084800000020
  8.6303750400000006  0.0000000000000000 25.8911251200000017
  7.1919792000000005  1.4383958400000001 27.3295209600000035
  5.7535833600000004  2.8767916800000002 28.7679168000000018
  4.3151875200000003  4.3151875200000003 30.2063126400000002
  2.8767916800000002  5.7535833600000004 31.6447084800000020
  1.4383958400000001  7.1919792000000005 33.0831043200000039
  0.0000000000000000  8.6303750400000006 34.5215001600000022
  8.6303750400000006  0.0000000000000000 28.7679168000000018
  7.1919792000000005  1.4383958400000001 30.2063126400000002
  5.7535833600000004  2.8767916800000002 31.6447084800000020
  4.3151875200000003  4.3151875200000003 33.0831043200000039
  2.8767916800000002  5.7535833600000004 34.5215001600000022
  1.4383958400000001  7.1919792000000005 35.9598960000000005
  0.0000000000000000  8.6303750400000006 37.3982918399999988
  8.6303750400000006  0.0000000000000000 31.6447084800000020
  7.1919792000000005  1.4383958400000001 33.0831043200000039
  5.7535833600000004  2.8767916800000002 34.5215001600000022
  4.3151875200000003  4.3151875200000003 35.9598960000000005
  2.8767916800000002  5.7535833600000004 37.3982918399999988
  1.4383958400000001  7.1919792000000005 38.8366876800000043
  0.0000000000000000  8.6303750400000006 40.2750835200000026
  8.6303750400000006  0.0000000000000000 34.5215001600000022
  7.1919792000000005  1.4383958400000001 35.9598960000000005
  5.7535833600000004  2.8767916800000002 37.3982918399999988
  4.3151875200000003  4.3151875200000003 38.8366876800000043
  2.8767916800000002  5.7535833600000004 40.2750835200000026
  1.4383958400000001  7.1919792000000005 41.7134793600000009
  0.0000000000000000  8.6303750400000006 43.1518752000000063
  8.6303750400000006  0.0000000000000000 37.3982918399999988
  7.1919792000000005  1.4383958400000001 38.8366876800000043
  5.7535833600000004  2.8767916800000002 40.2750835200000026
  4.3151875200000003  4.3151875200000003 41.7134793600000009
  2.8767916800000002  5.7535833600000004 43.1518752000000063
  1.4383958400000001  7.1919792000000005 44.5902710400000046
  8.6303750400000006  0.0000000000000000 40.2750835200000026
  7.1919792000000005  1.4383958400000001 41.7134793600000009
  5.7535833600000004  2.8767916800000002 43.1518752000000063
  4.3151875200000003  4.3151875200000003 44.5902710400000046
  8.6303750400000006  0.0000000000000000 43.1518752000000063
  7.1919792000000005  1.4383958400000001 44.5902710400000046
  0.0000000000000000 11.5071667200000007  0.0000000000000000
  2.8767916800000002  8.6303750400000006  0.0000000000000000
  1.4383958400000001 10.0687708800000006  1.4383958400000001
  0.0000000000000000 11.5071667200000007  2.8767916800000002
  5.7535833600000004  5.7535833600000004  0.0000000000000000
  4.3151875200000003  7.1919792000000005  1.4383958400000001
  2.8767916800000002  8.6303750400000006  2.8767916800000002
  1.4383958400000001 10.0687708800000006  4.3151875200000003
  0.0000000000000000 11.5071667200000007  5.7535833600000004
  8.6303750400000006  2.8767916800000002  0.0000000000000000
  7.1919792000000005  4.3151875200000003  1.4383958400000001
  5.7535833600000004  5.7535833600000004  2.8767916800000002
  4.3151875200000003  7.1919792000000005  4.3151875200000003
  2.8767916800000002  8.6303750400000006  5.7535833600000004
  1.4383958400000001 10.0687708800000006  7.1919792000000005
  0.0000000000000000 11.5071667200000007  8.6303750400000006
 11.5071667200000007  0.0000000000000000  0.0000000000000000
 10.0687708800000006  1.4383958400000001  1.4383958400000001
  8.6303750400000006  2.8767916800000002  2.8767916800000002
  7.1919792000000005  4.3151875200000003  4.3151875200000003
  5.7535833600000004  5.7535833600000004  5.7535833600000004
  4.3151875200000003  7.1919792000000005  7.1919792000000005
  2.8767916800000002  8.6303750400000006  8.6303750400000006
  1.4383958400000001 10.0687708800000006 10.0687708800000006
  0.0000000000000000 11.5071667200000007 11.5071667200000007
 11.5071667200000007  0.0000000000000000  2.8767916800000002
 10.0687708800000006  1.4383958400000001  4.3151875200000003
  8.6303750400000006  2.8767916800000002  5.7535833600000004
  7.1919792000000005  4.3151875200000003  7.1919792000000005
  5.7535833600000004  5.7535833600000004  8.6303750400000006
  4.3151875200000003  7.1919792000000005 10.0687708800000006
  2.8767916800000002  8.6303750400000006 11.5071667200000007
  1.4383958400000001 10.0687708800000006 12.9455625600000008
  0.0000000000000000 11.5071667200000007 14.3839584000000009
 11.5071667200000007  0.0000000000000000  5.7535833600000004
 10.0687708800000006  1.4383958400000001  7.1919792000000005
  8.6303750400000006  2.8767916800000002  8.6303750400000006
  7.1919792000000005  4.3151875200000003 10.0687708800000006
  5.7535833600000004  5.7535833600000004 11.5071667200000007
  4.3151875200000003  7.1919792000000005 12.9455625600000008
  2.8767916800000002  8.6303750400000006 14.3839584000000009
  1.4383958400000001 10.0687708800000006 15.8223542400000010
  0.0000000000000000 11.5071667200000007 17.2607500800000011
 11.5071667200000007  0.0000000000000000  8.6303750400000006
 10.0687708800000006  1.4383958400000001 10.0687708800000006
  8.6303750400000006  2.8767916800000002 11.5071667200000007
  7.1919792000000005  4.3151875200000003 12.9455625600000008
  5.7535833600000004  5.7535833600000004 14.3839584000000009
  4.3151875200000003  7.1919792000000005 15.8223542400000010
  2.8767916800000002  8.6303750400000006 17.2607500800000011
  1.4383958400000001 10.0687708800000006 18.6991459199999994
  0.0000000000000000 11.5071667200000007 20.1375417600000013
 11.5071667200000007  0.0000000000000000 11.5071667200000007
 10.0687708800000006  1.4383958400000001 12.9455625600000008
  8.6303750400000006  2.8767916800000002 14.3839584000000009
  7.1919792000000005  4.3151875200000003 15.8223542400000010
  5.7535833600000004  5.7535833600000004 17.2607500800000011
  4.3151875200000003  7.1919792000000005 18.6991459199999994
  2.8767916800000002  8.6303750400000006 20.1375417600000013
  1.4383958400000001 10.0687708800000006 21.5759376000000032
  0.0000000000000000 11.5071667200000007 23.0143334400000015
 11.5071667200000007  0.0000000000000000 14.3839584000000009
 10.0687708800000006  1.4383958400000001 15.8223542400000010
  8.6303750400000006  2.8767916800000002 17.2607500800000011
  7.1919792000000005  4.3151875200000003 18.6991459199999994
  5.7535833600000004  5.7535833600000004 20.1375417600000013
  4.3151875200000003  7.1919792000000005 21.5759376000000032
  2.8767916800000002  8.6303750400000006 23.0143334400000015
  1.4383958400000001 10.0687708800000006 24.4527292799999998
  0.0000000000000000 11.5071667200000007 25.8911251200000017
 11.5071667200000007  0.0000000000000000 17.2607500800000011
 10.0687708800000006  1.4383958400000001 18.6991459199999994
  8.6303750400000006  2.8767916800000002 20.1375417600000013
  7.1919792000000005  4.3151875200000003 21.5759376000000032
  5.7535833600000004  5.7535833600000004 23.0143334400000015
  4.3151875200000003  7.1919792000000005 24.4527292799999998
  2.8767916800000002  8.6303750400000006 25.8911251200000017
  1.4383958400000001 10.0687708800000006 27.3295209600000035
  0.0000000000000000 11.5071667200000007 28.7679168000000018
 11.5071667200000007  0.0000000000000000 20.1375417600000013
 10.0687708800000006  1.4383958400000001 21.5759376000000032
  8.6303750400000006  2.8767916800000002 23.0143334400000015
  7.1919792000000005  4.3151875200000003 24.4527292799999998
  5.7535833600000004  5.7535833600000004 25.8911251200000017
  4.3151875200000003  7.1919792000000005 27.3295209600000035
  2.8767916800000002  8.6303750400000006 28.7679168000000018
  1.4383958400000001 10.0687708800000006 30.2063126400000002
  0.0000000000000000 11.5071667200000007 31.6447084800000020
 11.5071667200000007  0.0000000000000000 23.0143334400000015
 10.0687708800000006  1.4383958400000001 24.4527292799999998
  8.6303750400000006  2.8767916800000002 25.8911251200000017
  7.1919792000000005  4.3151875200000003 27.3295209600000035
  5.7535833600000004  5.7535833600000004 28.7679168000000018
  4.3151875200000003  7.1919792000000005 30.2063126400000002
  2.8767916800000002  8.6303750400000006 31.6447084800000020
  1.4383958400000001 10.0687708800000006 33.0831043200000039
  0.0000000000000000 11.5071667200000007 34.5215001600000022
 11.5071667200000007  0.0000000000000000 25.8911251200000017
 10.0687708800000006  1.4383958400000001 27.3295209600000035
  8.6303750400000006  2.8767916800000002 28.7679168000000018
  7.1919792000000005  4.3151875200000003 30.2063126400000002
  5.7535833600000004  5.7535833600000004 31.6447084800000020
  4.3151875200000003  7.1919792000000005 33.0831043200000039
  2.8767916800000002  8.6303750400000006 34.5215001600000022
  1.4383958400000001 10.0687708800000006 35.9598960000000005
  0.0000000000000000 11.5071667200000007 37.3982918399999988
 11.5071667200000007  0.0000000000000000 28.7679168000000018
 10.0687708800000006  1.4383958400000001 30.2063126400000002
  8.6303750400000006  2.8767916800000002 31.6447084800000020
  7.1919792000000005  4.3151875200000003 33.0831043200000039
  5.7535833600000004  5.7535833600000004 34.5215001600000022
  4.3151875200000003  7.1919792000000005 35.9598960000000005
  2.8767916800000002  8.6303750400000006 37.3982918399999988
  1.4383958400000001 10.0687708800000006 38.8366876800000043
  0.0000000000000000 11.5071667200000007 40.2750835200000026
 11.5071667200000007  0.0000000000000000 31.6447084800000020
 10.0687708800000006  1.4383958400000001 33.0831043200000039
  8.6303750400000006  2.8767916800000002 34.5215001600000022
  7.1919792000000005  4.3151875200000003 35.9598960000000005
  5.7535833600000004  5.7535833600000004 37.3982918399999988
  4.3151875200000003  7.1919792000000005 38.8366876800000043
  2.8767916800000002  8.6303750400000006 40.2750835200000026
  1.4383958400000001 10.0687708800000006 41.7134793600000009
  0.0000000000000000 11.5071667200000007 43.1518752000000063
 11.5071667200000007  0.0000000000000000 34.5215001600000022
 10.0687708800000006  1.4383958400000001 35.9598960000000005
  8.6303750400000006  2.8767916800000002 37.3982918399999988
  7.1919792000000005  4.3151875200000003 38.8366876800000043
  5.7535833600000004  5.7535833600000004 40.2750835200000026
  4.3151875200000003  7.1919792000000005 41.7134793600000009
  2.8767916800000002  8.6303750400000006 43.1518752000000063
  1.4383958400000001 10.0687708800000006 44.5902710400000046
 11.5071667200000007  0.0000000000000000 37.3982918399999988
 10.0687708800000006  1.4383958400000001 38.8366876800000043
  8.6303750400000006  2.8767916800000002 40.2750835200000026
  7.1919792000000005  4.3151875200000003 41.7134793600000009
  5.7535833600000004  5.7535833600000004 43.1518752000000063
  4.3151875200000003  7.1919792000000005 44.5902710400000046
 11.5071667200000007  0.0000000000000000 40.2750835200000026
 10.0687708800000006  1.4383958400000001 41.7134793600000009
  8.6303750400000006  2.8767916800000002 43.1518752000000063
  7.1919792000000005  4.3151875200000003 44.5902710400000046
 11.5071667200000007  0.0000000000000000 43.1518752000000063
 10.0687708800000006  1.4383958400000001 44.5902710400000046
  0.0000000000000000 14.3839584000000009  0.0000000000000000
  2.8767916800000002 11.5071667200000007  0.0000000000000000
  1.4383958400000001 12.9455625600000008  1.4383958400000001
  0.0000000000000000 14.3839584000000009  2.8767916800000002
  5.7535833600000004  8.6303750400000006  0.0000000000000000
  4.3151875200000003 10.0687708800000006  1.4383958400000001
  2.8767916800000002 11.5071667200000007  2.8767916800000002
  1.4383958400000001 12.9455625600000008  4.3151875200000003
  0.0000000000000000 14.3839584000000009  5.7535833600000004
  8.6303750400000006  5.7535833600000004  0.0000000000000000
  7.1919792000000005  7.1919792000000005  1.4383958400000001
  5.7535833600000004  8.6303750400000006  2.8767916800000002
  4.3151875200000003 10.0687708800000006  4.3151875200000003
  2.8767916800000002 11.5071667200000007  5.7535833600000004
  1.4383958400000001 12.9455625600000008  7.1919792000000005
  0.0000000000000000 14.3839584000000009  8.6303750400000006
 11.5071667200000007  2.8767916800000002  0.0000000000000000
 10.0687708800000006  4.3151875200000003  1.4383958400000001
  8.6303750400000006  5.7535833600000004  2.8767916800000002
  7.1919792000000005  7.1919792000000005  4.3151875200000003
  5.7535833600000004  8.6303750400000006  5.7535833600000004
  4.3151875200000003 10.0687708800000006  7.1919792000000005
  2.8767916800000002 11.5071667200000007  8.6303750400000006
  1.4383958400000001 12.9455625600000008 10.0687708800000006
  0.0000000000000000 14.3839584000000009 11.5071667200000007
 14.3839584000000009  0.0000000000000000  0.0000000000000000
 12.9455625600000008  1.4383958400000001  1.4383958400000001
 11.5071667200000007  2.8767916800000002  2.8767916800000002
 10.0687708800000006  4.3151875200000003  4.3151875200000003
  8.6303750400000006  5.7535833600000004  5.7535833600000004
  7.1919792000000005  7.1919792000000005  7.1919792000000005
  5.7535833600000004  8.6303750400000006  8.6303750400000006
  4.3151875200000003 10.0687708800000006 10.0687708800000006
  2.8767916800000002 11.5071667200000007 11.5071667200000007
  1.4383958400000001 12.9455625600000008 12.9455625600000008
  0.0000000000000000 14.3839584000000009 14.3839584000000009
 14.3839584000000009  0.0000000000000000  2.8767916800000002
 12.9455625600000008  1.4383958400000001  4.3151875200000003
 11.5071667200000007  2.8767916800000002  5.7535833600000004
 10.0687708800000006  4.3151875200000003  7.1919792000000005
  8.6303750400000006  5.7535833600000004  8.6303750400000006
  7.1919792000000005  7.1919792000000005 10.0687708800000006
  5.7535833600000004  8.6303750400000006 11.5071667200000007
  4.3151875200000003 10.0687708800000006 12.9455625600000008
  2.8767916800000002 11.5071667200000007 14.3839584000000009
  1.4383958400000001 12.9455625600000008 15.8223542400000010
  0.0000000000000000 14.3839584000000009 17.2607500800000011
 14.3839584000000009  0.0000000000000000  5.7535833600000004
 12.9455625600000008  1.4383958400000001  7.1919792000000005
 11.5071667200000007  2.8767916800000002  8.6303750400000006
 10.0687708800000006  4.3151875200000003 10.0687708800000006
  8.6303750400000006  5.7535833600000004 11.5071667200000007
  7.1919792000000005  7.1919792000000005 12.9455625600000008
  5.7535833600000004  8.6303750400000006 14.3839584000000009
  4.3151875200000003 10.0687708800000006 15.8223542400000010
  2.8767916800000002 11.5071667200000007 17.2607500800000011
  1.4383958400000001 12.9455625600000008 18.6991459199999994
  0.0000000000000000 14.3839584000000009 20.1375417600000013
 14.3839584000000009  0.0000000000000000  8.6303750400000006
 12.9455625600000008  1.4383958400000001 10.0687708800000006
 11.5071667200000007  2.8767916800000002 11.5071667200000007
 10.0687708800000006  4.3151875200000003 12.9455625600000008
  8.6303750400000006  5.7535833600000004 14.3839584000000009
  7.1919792000000005  7.1919792000000005 15.8223542400000010
  5.7535833600000004  8.6303750400000006 17.2607500800000011
  4.3151875200000003 10.0687708800000006 18.6991459199999994
  2.8767916800000002 11.5071667200000007 20.1375417600000013
  1.4383958400000001 12.9455625600000008 21.5759376000000032
  0.0000000000000000 14.3839584000000009 23.0143334400000015
 14.3839584000000009  0.0000000000000000 11.5071667200000007
 12.9455625600000008  1.4383958400000001 12.9455625600000008
 11.5071667200000007  2.8767916800000002 14.3839584000000009
 10.0687708800000006  4.3151875200000003 15.8223542400000010
  8.6303750400000006  5.7535833600000004 17.2607500800000011
  7.1919792000000005  7.1919792000000005 18.6991459199999994
  5.7535833600000004  8.6303750400000006 20.1375417600000013
  4.3151875200000003 10.0687708800000006 21.5759376000000032
  2.8767916800000002 11.5071667200000007 23.0143334400000015
  1.4383958400000001 12.9455625600000008 24.4527292799999998
  0.0000000000000000 14.3839584000000009 25.8911251200000017
 14.3839584000000009  0.0000000000000000 14.3839584000000009
 12.9455625600000008  1.4383958400000001 15.8223542400000010
 11.5071667200000007  2.8767916800000002 17.2607500800000011
 10.0687708800000006  4.3151875200000003 18.6991459199999994
  8.6303750400000006  5.7535833600000004 20.1375417600000013
  7.1919792000000005  7.1919792000000005 21.5759376000000032
  5.7535833600000004  8.6303750400000006 23.0143334400000015