Fe 
 1.0000000000000000
    14.3839584000000009    0.0000000000000000    0.0000000000000000
     0.0000000000000000   14.3839584000000009    0.0000000000000000
     0.0000000000000000    0.0000000000000000  345.2150016000000505
 Fe 
 12000
Cartesian
  0.0000000000000000  0.0000000000000000  0.0000000000000000
  0.3595989600000000  0.3595989600000000  0.3595989600000000
  0.0000000000000000  2.8767916800000002  0.0000000000000000
  0.3595989600000000  3.2363906400000002  0.3595989600000000
  0.0000000000000000  5.7535833600000004  0.0000000000000000
  0.3595989600000000  6.1131823199999999  0.3595989600000000
  0.0000000000000000  8.6303750400000006  0.0000000000000000
  0.3595989600000000  8.9899740000000001  0.3595989600000000
  0.0000000000000000 11.5071667200000007  0.0000000000000000
  0.3595989600000000 11.8667656800000003  0.3595989600000000
  2.8767916800000002  0.0000000000000000  0.0000000000000000
  3.2363906400000002  0.3595989600000000  0.3595989600000000
  0.0000000000000000  0.0000000000000000  2.8767916800000002
  0.3595989600000000  0.3595989600000000  3.2363906400000002
  1.4383958400000001  1.4383958400000001  1.4383958400000001
  1.7979948000000001  1.7979948000000001  1.7979948000000001
  2.8767916800000002  2.8767916800000002  0.0000000000000000
  3.2363906400000002  3.2363906400000002  0.3595989600000000
  0.0000000000000000  2.8767916800000002  2.8767916800000002
  0.3595989600000000  3.2363906400000002  3.2363906400000002
  1.4383958400000001  4.3151875200000003  1.4383958400000001
  1.7979948000000001  4.6747864799999999  1.7979948000000001
  2.8767916800000002  5.7535833600000004  0.0000000000000000
  3.2363906400000002  6.1131823199999999  0.3595989600000000
  0.0000000000000000  5.7535833600000004  2.8767916800000002
  0.3595989600000000  6.1131823199999999  3.2363906400000002
  1.4383958400000001  7.1919792000000005  1.4383958400000001
  1.7979948000000001  7.5515781600000000  1.7979948000000001
  2.8767916800000002  8.6303750400000006  0.0000000000000000
  3.2363906400000002  8.9899740000000001  0.3595989600000000
  0.0000000000000000  8.6303750400000006  2.8767916800000002
  0.3595989600000000  8.9899740000000001  3.2363906400000002
  1.4383958400000001 10.0687708800000006  1.4383958400000001
  1.7979948000000001 10.4283698400000002  1.7979948000000001
  2.8767916800000002 11.5071667200000007  0.0000000000000000
  3.2363906400000002 11.8667656800000003  0.3595989600000000
  0.0000000000000000 11.5071667200000007  2.8767916800000002
  0.3595989600000000 11.8667656800000003  3.2363906400000002
  1.4383958400000001 12.9455625600000008  1.4383958400000001
  1.7979948000000001 13.3051615200000004  1.7979948000000001
  5.7535833600000004  0.0000000000000000  0.0000000000000000
  6.1131823199999999  0.3595989600000000  0.3595989600000000
  2.8767916800000002  0.0000000000000000  2.8767916800000002
  3.2363906400000002  0.3595989600000000  3.2363906400000002
  4.3151875200000003  1.4383958400000001  1.4383958400000001
  4.6747864799999999  1.7979948000000001  1.7979948000000001
  5.7535833600000004  2.8767916800000002  0.0000000000000000
  6.1131823199999999  3.2363906400000002  0.3595989600000000
  0.0000000000000000  0.0000000000000000  5.7535833600000004
  0.3595989600000000  0.3595989600000000  6.1131823199999999
  1.4383958400000001  1.4383958400000001  4.3151875200000003
  1.7979948000000001  1.7979948000000001  4.6747864799999999
  2.8767916800000002  2.8767916800000002  2.8767916800000002
  3.2363906400000002  3.2363906400000002  3.2363906400000002
  4.3151875200000003  4.3151875200000003  1.4383958400000001
  4.6747864799999999  4.6747864799999999  1.7979948000000001
  5.7535833600000004  5.7535833600000004  0.0000000000000000
  6.1131823199999999  6.1131823199999999  0.3595989600000000
  0.0000000000000000  2.8767916800000002  5.7535833600000004
  0.3595989600000000  3.2363906400000002  6.1131823199999999
  1.4383958400000001  4.3151875200000003  4.3151875200000003
  1.7979948000000001  4.6747864799999999  4.6747864799999999
  2.8767916800000002  5.7535833600000004  2.8767916800000002
  3.2363906400000002  6.1131823199999999  3.2363906400000002
  4.3151875200000003  7.1919792000000005  1.4383958400000001
  4.6747864799999999  7.5515781600000000  1.7979948000000001
  5.7535833600000004  8.6303750400000006  0.0000000000000000
  6.1131823199999999  8.9899740000000001  0.3595989600000000
  0.0000000000000000  5.7535833600000004  5.7535833600000004
  0.3595989600000000  6.1131823199999999  6.1131823199999999
  1.4383958400000001  7.1919792000000005  4.3151875200000003
  1.7979948000000001  7.5515781600000000  4.6747864799999999
  2.8767916800000002  8.6303750400000006  2.8767916800000002
  3.2363906400000002  8.9899740000000001  3.2363906400000002
  4.3151875200000003 10.0687708800000006  1.4383958400000001
  4.6747864799999999 10.4283698400000002  1.7979948000000001
  5.7535833600000004 11.5071667200000007  0.0000000000000000
  6.1131823199999999 11.8667656800000003  0.3595989600000000
  0.0000000000000000  8.6303750400000006  5.7535833600000004
  0.3595989600000000  8.9899740000000001  6.1131823199999999
  1.4383958400000001 10.0687708800000006  4.3151875200000003
  1.7979948000000001 10.4283698400000002  4.6747864799999999
  2.8767916800000002 11.5071667200000007  2.8767916800000002
  3.2363906400000002 11.8667656800000003  3.2363906400000002
  4.3151875200000003 12.9455625600000008  1.4383958400000001
  4.6747864799999999 13.3051615200000004  1.7979948000000001
  0.0000000000000000 11.5071667200000007  5.7535833600000004
  0.3595989600000000 11.8667656800000003  6.1131823199999999
  1.4383958400000001 12.9455625600000008  4.3151875200000003
  1.7979948000000001 13.3051615200000004  4.6747864799999999
  8.6303750400000006  0.0000000000000000  0.0000000000000000
  8.9899740000000001  0.3595989600000000  0.3595989600000000
  5.7535833600000004  0.0000000000000000  2.8767916800000002
  6.1131823199999999  0.3595989600000000  3.2363906400000002
  7.1919792000000005  1.4383958400000001  1.4383958400000001
  7.5515781600000000  1.7979948000000001  1.7979948000000001
  8.6303750400000006  2.8767916800000002  0.0000000000000000
  8.9899740000000001  3.2363906400000002  0.3595989600000000
  2.8767916800000002  0.0000000000000000  5.7535833600000004
  3.2363906400000002  0.3595989600000000  6.1131823199999999
  4.3151875200000003  1.4383958400000001  4.3151875200000003
  4.6747864799999999  1.7979948000000001  4.6747864799999999
  5.7535833600000004  2.8767916800000002  2.8767916800000002
  6.1131823199999999  3.2363906400000002  3.2363906400000002
  7.1919792000000005  4.3151875200000003  1.4383958400000001
  7.5515781600000000  4.6747864799999999  1.7979948000000001
  8.6303750400000006  5.7535833600000004  0.0000000000000000
  8.9899740000000001  6.1131823199999999  0.3595989600000000
  0.0000000000000000  0.0000000000000000  8.6303750400000006
  0.3595989600000000  0.3595989600000000  8.9899740000000001
  1.4383958400000001  1.4383958400000001  7.1919792000000005
  1.7979948000000001  1.7979948000000001  7.5515781600000000
  2.8767916800000002  2.8767916800000002  5.7535833600000004
  3.2363906400000002  3.2363906400000002  6.1131823199999999
  4.3151875200000003  4.3151875200000003  4.3151875200000003
  4.6747864799999999  4.6747864799999999  4.6747864799999999
  5.7535833600000004  5.7535833600000004  2.8767916800000002
  6.1131823199999999  6.1131823199999999  3.2363906400000002
  7.1919792000000005  7.1919792000000005  1.4383958400000001
  7.5515781600000000  7.5515781600000000  1.7979948000000001
  8.6303750400000006  8.6303750400000006  0.0000000000000000
  8.9899740000000001  8.9899740000000001  0.3595989600000000
  0.0000000000000000  2.8767916800000002  8.6303750400000006
  0.3595989600000000  3.2363906400000002  8.9899740000000001
  1.4383958400000001  4.3151875200000003  7.1919792000000005
  1.7979948000000001  4.6747864799999999  7.5515781600000000
  2.8767916800000002  5.7535833600000004  5.7535833600000004
  3.2363906400000002  6.1131823199999999  6.1131823199999999
  4.3151875200000003  7.1919792000000005  4.3151875200000003
  4.6747864799999999  7.5515781600000000  4.6747864799999999
  5.7535833600000004  8.6303750400000006  2.8767916800000002
  6.1131823199999999  8.9899740000000001  3.2363906400000002
  7.1919792000000005 10.0687708800000006  1.4383958400000001
  7.5515781600000000 10.4283698400000002  1.7979948000000001
  8.6303750400000006 11.5071667200000007  0.0000000000000000
  8.9899740000000001 11.8667656800000003  0.3595989600000000
  0.0000000000000000  5.7535833600000004  8.6303750400000006
  0.3595989600000000  6.1131823199999999  8.9899740000000001
  1.4383958400000001  7.1919792000000005  7.1919792000000005
  1.7979948000000001  7.5515781600000000  7.5515781600000000
  2.8767916800000002  8.6303750400000006  5.7535833600000004
  3.2363906400000002  8.9899740000000001  6.1131823199999999
  4.3151875200000003 10.0687708800000006  4.3151875200000003
  4.6747864799999999 10.4283698400000002  4.6747864799999999
  5.7535833600000004 11.5071667200000007  2.8767916800000002
  6.1131823199999999 11.8667656800000003  3.2363906400000002
  7.1919792000000005 12.9455625600000008  1.4383958400000001
  7.5515781600000000 13.3051615200000004  1.7979948000000001
  0.0000000000000000  8.6303750400000006  8.6303750400000006
  0.3595989600000000  8.9899740000000001  8.9899740000000001
  1.4383958400000001 10.0687708800000006  7.1919792000000005
  1.7979948000000001 10.4283698400000002  7.5515781600000000
  2.8767916800000002 11.5071667200000007  5.7535833600000004
  3.2363906400000002 11.8667656800000003  6.1131823199999999
  4.3151875200000003 12.9455625600000008  4.3151875200000003
  4.6747864799999999 13.3051615200000004  4.6747864799999999
  0.0000000000000000 11.5071667200000007  8.6303750400000006
  0.3595989600000000 11.8667656800000003  8.9899740000000001
  1.4383958400000001 12.9455625600000008  7.1919792000000005
  1.7979948000000001 13.3051615200000004  7.5515781600000000
 11.5071667200000007  0.0000000000000000  0.0000000000000000
 11.8667656800000003  0.3595989600000000  0.3595989600000000
  8.6303750400000006  0.0000000000000000  2.8767916800000002
  8.9899740000000001  0.3595989600000000  3.2363906400000002
 10.0687708800000006  1.4383958400000001  1.4383958400000001
 10.4283698400000002  1.7979948000000001  1.7979948000000001
 11.5071667200000007  2.8767916800000002  0.0000000000000000
 11.8667656800000003  3.2363906400000002  0.3595989600000000
  5.7535833600000004  0.0000000000000000  5.7535833600000004
  6.1131823199999999  0.3595989600000000  6.1131823199999999
  7.1919792000000005  1.4383958400000001  4.3151875200000003
  7.5515781600000000  1.7979948000000001  4.6747864799999999
  8.6303750400000006  2.8767916800000002  2.8767916800000002
  8.9899740000000001  3.2363906400000002  3.2363906400000002
 10.0687708800000006  4.3151875200000003  1.4383958400000001
 10.4283698400000002  4.6747864799999999  1.7979948000000001
 11.5071667200000007  5.7535833600000004  0.0000000000000000
 11.8667656800000003  6.1131823199999999  0.3595989600000000
  2.8767916800000002  0.0000000000000000  8.6303750400000006
  3.2363906400000002  0.3595989600000000  8.9899740000000001
  4.3151875200000003  1.4383958400000001  7.1919792000000005
  4.6747864799999999  1.7979948000000001  7.5515781600000000
  5.7535833600000004  2.8767916800000002  5.7535833600000004
  6.1131823199999999  3.2363906400000002  6.1131823199999999
  7.1919792000000005  4.3151875200000003  4.3151875200000003
  7.5515781600000000  4.6747864799999999  4.6747864799999999
  8.6303750400000006  5.7535833600000004  2.8767916800000002
  8.9899740000000001  6.1131823199999999  3.2363906400000002
 10.0687708800000006  7.1919792000000005  1.4383958400000001
 10.4283698400000002  7.5515781600000000  1.7979948000000001
 11.5071667200000007  8.6303750400000006  0.0000000000000000
 11.8667656800000003  8.9899740000000001  0.3595989600000000
  0.0000000000000000  0.0000000000000000 11.5071667200000007
  0.3595989600000000  0.3595989600000000 11.8667656800000003
  1.4383958400000001  1.4383958400000001 10.0687708800000006
  1.7979948000000001  1.7979948000000001 10.4283698400000002
  2.8767916800000002  2.8767916800000002  8.6303750400000006
  3.2363906400000002  3.2363906400000002  8.9899740000000001
  4.3151875200000003  4.3151875200000003  7.1919792000000005
  4.6747864799999999  4.6747864799999999  7.5515781600000000
  5.7535833600000004  5.7535833600000004  5.7535833600000004
  6.1131823199999999  6.1131823199999999  6.1131823199999999
  7.1919792000000005  7.1919792000000005  4.3151875200000003
  7.5515781600000000  7.5515781600000000  4.6747864799999999
  8.6303750400000006  8.6303750400000006  2.8767916800000002
  8.9899740000000001  8.9899740000000001  3.2363906400000002
 10.0687708800000006 10.0687708800000006  1.4383958400000001
 10.4283698400000002 10.4283698400000002  1.7979948000000001
 11.5071667200000007 11.5071667200000007  0.0000000000000000
 11.8667656800000003 11.8667656800000003  0.3595989600000000
  0.0000000000000000  2.8767916800000002 11.5071667200000007
  0.3595989600000000  3.2363906400000002 11.8667656800000003
  1.4383958400000001  4.3151875200000003 10.0687708800000006
  1.7979948000000001  4.6747864799999999 10.4283698400000002
  2.8767916800000002  5.7535833600000004  8.6303750400000006
  3.2363906400000002  6.1131823199999999  8.9899740000000001
  4.3151875200000003  7.1919792000000005  7.1919792000000005
  4.6747864799999999  7.5515781600000000  7.5515781600000000
  5.7535833600000004  8.6303750400000006  5.7535833600000004
  6.1131823199999999  8.9899740000000001  6.1131823199999999
  7.1919792000000005 10.0687708800000006  4.3151875200000003
  7.5515781600000000 10.4283698400000002  4.6747864799999999
  8.6303750400000006 11.5071667200000007  2.8767916800000002
  8.9899740000000001 11.8667656800000003  3.2363906400000002
 10.0687708800000006 12.9455625600000008  1.4383958400000001
 10.4283698400000002 13.3051615200000004  1.7979948000000001
  0.0000000000000000  5.7535833600000004 11.5071667200000007
  0.3595989600000000  6.1131823199999999 11.8667656800000003
  1.4383958400000001  7.1919792000000005 10.0687708800000006
  1.7979948000000001  7.5515781600000000 10.4283698400000002
  2.8767916800000002  8.6303750400000006  8.6303750400000006
  3.2363906400000002  8.9899740000000001  8.9899740000000001
  4.3151875200000003 10.0687708800000006  7.1919792000000005
  4.6747864799999999 10.4283698400000002  7.5515781600000000
  5.7535833600000004 11.5071667200000007  5.7535833600000004
  6.1131823199999999 11.8667656800000003  6.1131823199999999
  7.1919792000000005 12.9455625600000008  4.3151875200000003
  7.5515781600000000 13.3051615200000004  4.6747864799999999
  0.0000000000000000  8.6303750400000006 11.5071667200000007
  0.3595989600000000  8.9899740000000001 11.8667656800000003
  1.4383958400000001 10.0687708800000006 10.0687708800000006
  1.7979948000000001 10.4283698400000002 10.4283698400000002
  2.8767916800000002 11.5071667200000007  8.6303750400000006
  3.2363906400000002 11.8667656800000003  8.9899740000000001
  4.3151875200000003 12.9455625600000008  7.1919792000000005
  4.6747864799999999 13.3051615200000004  7.5515781600000000
  0.0000000000000000 11.5071667200000007 11.5071667200000007
  0.3595989600000000 11.8667656800000003 11.8667656800000003
  1.4383958400000001 12.9455625600000008 10.0687708800000006
  1.7979948000000001 13.3051615200000004 10.4283698400000002
 11.5071667200000007  0.0000000000000000  2.8767916800000002
 11.8667656800000003  0.3595989600000000  3.2363906400000002
 12.9455625600000008  1.4383958400000001  1.4383958400000001
 13.3051615200000004  1.7979948000000001  1.7979948000000001
  8.6303750400000006  0.0000000000000000  5.7535833600000004
  8.9899740000000001  0.3595989600000000  6.1131823199999999
 10.0687708800000006  1.4383958400000001  4.3151875200000003
 10.4283698400000002  1.7979948000000001  4.6747864799999999
 11.5071667200000007  2.8767916800000002  2.8767916800000002
 11.8667656800000003  3.2363906400000002  3.2363906400000002
 12.9455625600000008  4.3151875200000003  1.4383958400000001
 13.3051615200000004  4.6747864799999999  1.7979948000000001
  5.7535833600000004  0.0000000000000000  8.6303750400000006
  6.1131823199999999  0.3595989600000000  8.9899740000000001
  7.1919792000000005  1.4383958400000001  7.1919792000000005
  7.5515781600000000  1.7979948000000001  7.5515781600000000
  8.6303750400000006  2.8767916800000002  5.7535833600000004
  8.9899740000000001  3.2363906400000002  6.1131823199999999
 10.0687708800000006  4.3151875200000003  4.3151875200000003
 10.4283698400000002  4.6747864799999999  4.6747864799999999
 11.5071667200000007  5.7535833600000004  2.8767916800000002
 11.8667656800000003  6.1131823199999999  3.2363906400000002
 12.9455625600000008  7.1919792000000005  1.4383958400000001
 13.3051615200000004  7.5515781600000000  1.7979948000000001
  2.8767916800000002  0.0000000000000000 11.5071667200000007
  3.2363906400000002  0.3595989600000000 11.8667656800000003
  4.3151875200000003  1.4383958400000001 10.0687708800000006
  4.6747864799999999  1.7979948000000001 10.4283698400000002
  5.7535833600000004  2.8767916800000002  8.6303750400000006
  6.1131823199999999  3.2363906400000002  8.9899740000000001
  7.1919792000000005  4.3151875200000003  7.1919792000000005
  7.5515781600000000  4.6747864799999999  7.5515781600000000
  8.6303750400000006  5.7535833600000004  5.7535833600000004
  8.9899740000000001  6.1131823199999999  6.1131823199999999
 10.0687708800000006  7.1919792000000005  4.3151875200000003
 10.4283698400000002  7.5515781600000000  4.6747864799999999
 11.5071667200000007  8.6303750400000006  2.8767916800000002
 11.8667656800000003  8.9899740000000001  3.2363906400000002
 12.9455625600000008 10.0687708800000006  1.4383958400000001
 13.3051615200000004 10.4283698400000002  1.7979948000000001
  0.0000000000000000  0.0000000000000000 14.3839584000000009
  0.3595989600000000  0.3595989600000000 14.7435573600000005
  1.4383958400000001  1.4383958400000001 12.9455625600000008
  1.7979948000000001  1.7979948000000001 13.3051615200000004
  2.8767916800000002  2.8767916800000002 11.5071667200000007
  3.2363906400000002  3.2363906400000002 11.8667656800000003
  4.3151875200000003  4.3151875200000003 10.0687708800000006
  4.6747864799999999  4.6747864799999999 10.4283698400000002
  5.7535833600000004  5.7535833600000004  8.6303750400000006
  6.1131823199999999  6.1131823199999999  8.9899740000000001
  7.1919792000000005  7.1919792000000005  7.1919792000000005
  7.5515781600000000  7.5515781600000000  7.5515781600000000
  8.6303750400000006  8.6303750400000006  5.7535833600000004
  8.9899740000000001  8.9899740000000001  6.1131823199999999
 10.0687708800000006 10.0687708800000006  4.3151875200000003
 10.4283698400000002 10.4283698400000002  4.6747864799999999
 11.5071667200000007 11.5071667200000007  2.8767916800000002
 11.8667656800000003 11.8667656800000003  3.2363906400000002
 12.9455625600000008 12.9455625600000008  1.4383958400000001
 13.3051615200000004 13.3051615200000004  1.7979948000000001
  0.0000000000000000  2.8767916800000002 14.3839584000000009
  0.3595989600000000  3.2363906400000002 14.7435573600000005
  1.4383958400000001  4.3151875200000003 12.9455625600000008
  1.7979948000000001  4.6747864799999999 13.3051615200000004
  2.8767916800000002  5.7535833600000004 11.5071667200000007
  3.2363906400000002  6.1131823199999999 11.8667656800000003
  4.3151875200000003  7.1919792000000005 10.0687708800000006
  4.6747864799999999  7.5515781600000000 10.4283698400000002
  5.7535833600000004  8.6303750400000006  8.6303750400000006
  6.1131823199999999  8.9899740000000001  8.9899740000000001
  7.1919792000000005 10.0687708800000006  7.1919792000000005
  7.5515781600000000 10.4283698400000002  7.5515781600000000
  8.6303750400000006 11.5071667200000007  5.7535833600000004
  8.9899740000000001 11.8667656800000003  6.1131823199999999
 10.0687708800000006 12.9455625600000008  4.3151875200000003
 10.4283698400000002 13.3051615200000004  4.6747864799999999
  0.0000000000000000  5.7535833600000004 14.3839584000000009
  0.3595989600000000  6.1131823199999999 14.7435573600000005
  1.4383958400000001  7.1919792000000005 12.9455625600000008
  1.7979948000000001  7.5515781600000000 13.3051615200000004
  2.8767916800000002  8.6303750400000006 11.5071667200000007
  3.2363906400000002  8.9899740000000001 11.8667656800000003
  4.3151875200000003 10.0687708800000006 10.0687708800000006
  4.6747864799999999 10.4283698400000002 10.4283698400000002
  5.7535833600000004 11.5071667200000007  8.6303750400000006
  6.1131823199999999 11.8667656800000003  8.9899740000000001
  7.1919792000000005 12.9455625600000008  7.1919792000000005
  7.5515781600000000 13.3051615200000004  7.5515781600000000
  0.0000000000000000  8.6303750400000006 14.3839584000000009
  0.3595989600000000  8.9899740000000001 14.7435573600000005
  1.4383958400000001 10.0687708800000006 12.9455625600000008
  1.7979948000000001 10.4283698400000002 13.3051615200000004
  2.8767916800000002 11.5071667200000007 11.5071667200000007
  3.2363906400000002 11.8667656800000003 11.8667656800000003
  4.3151875200000003 12.9455625600000008 10.0687708800000006
  4.6747864799999999 13.3051615200000004 10.4283698400000002
  0.0000000000000000 11.5071667200000007 14.3839584000000009
  0.3595989600000000 11.8667656800000003 14.7435573600000005
  1.4383958400000001 12.9455625600000008 12.9455625600000008
  1.7979948000000001 13.3051615200000004 13.3051615200000004
 11.5071667200000007  0.0000000000000000  5.7535833600000004
 11.8667656800000003  0.3595989600000000  6.1131823199999999
 12.9455625600000008  1.4383958400000001  4.3151875200000003
 13.3051615200000004  1.7979948000000001  4.6747864799999999
  8.6303750400000006  0.0000000000000000  8.6303750400000006
  8.9899740000000001  0.3595989600000000  8.9899740000000001
 10.0687708800000006  1.4383958400000001  7.1919792000000005
 10.4283698400000002  1.7979948000000001  7.5515781600000000
 11.5071667200000007  2.8767916800000002  5.7535833600000004
 11.8667656800000003  3.2363906400000002  6.1131823199999999
 12.9455625600000008  4.3151875200000003  4.3151875200000003
 13.3051615200000004  4.6747864799999999  4.6747864799999999
  5.7535833600000004  0.0000000000000000 11.5071667200000007
  6.1131823199999999  0.3595989600000000 11.8667656800000003
  7.1919792000000005  1.4383958400000001 10.0687708800000006
  7.5515781600000000  1.7979948000000001 10.4283698400000002
  8.6303750400000006  2.8767916800000002  8.6303750400000006
  8.9899740000000001  3.2363906400000002  8.9899740000000001
 10.0687708800000006  4.3151875200000003  7.1919792000000005
 10.4283698400000002  4.6747864799999999  7.5515781600000000
 11.5071667200000007  5.7535833600000004  5.7535833600000004
 11.8667656800000003  6.1131823199999999  6.1131823199999999
 12.9455625600000008  7.1919792000000005  4.3151875200000003
 13.3051615200000004  7.5515781600000000  4.6747864799999999
  2.8767916800000002  0.0000000000000000 14.3839584000000009
  3.2363906400000002  0.3595989600000000 14.7435573600000005
  4.3151875200000003  1.4383958400000001 12.9455625600000008
  4.6747864799999999  1.7979948000000001 13.3051615200000004
  5.7535833600000004  2.8767916800000002 11.5071667200000007
  6.1131823199999999  3.2363906400000002 11.8667656800000003
  7.1919792000000005  4.3151875200000003 10.0687708800000006
  7.5515781600000000  4.6747864799999999 10.4283698400000002
  8.6303750400000006  5.7535833600000004  8.6303750400000006
  8.9899740000000001  6.1131823199999999  8.9899740000000001
 10.0687708800000006  7.1919792000000005  7.1919792000000005
 10.4283698400000002  7.5515781600000000  7.5515781600000000
 11.5071667200000007  8.6303750400000006  5.7535833600000004
 11.8667656800000003  8.9899740000000001  6.1131823199999999
 12.9455625600000008 10.0687708800000006  4.3151875200000003
 13.3051615200000004 10.4283698400000002  4.6747864799999999
  0.0000000000000000  0.0000000000000000 17.2607500800000011
  0.3595989600000000  0.3595989600000000 17.6203490400000007
  1.4383958400000001  1.4383958400000001 15.8223542400000010
  1.7979948000000001  1.7979948000000001 16.1819532000000024
  2.8767916800000002  2.8767916800000002 14.3839584000000009
  3.2363906400000002  3.2363906400000002 14.7435573600000005
  4.3151875200000003  4.3151875200000003 12.9455625600000008
  4.6747864799999999  4.6747864799999999 13.3051615200000004
  5.7535833600000004  5.7535833600000004 11.5071667200000007
  6.1131823199999999  6.1131823199999999 11.8667656800000003
  7.1919792000000005  7.1919792000000005 10.0687708800000006
  7.5515781600000000  7.5515781600000000 10.4283698400000002
  8.6303750400000006  8.6303750400000006  8.6303750400000006
  8.9899740000000001  8.9899740000000001  8.9899740000000001
 10.0687708800000006 10.0687708800000006  7.1919792000000005
 10.4283698400000002 10.4283698400000002  7.5515781600000000
 11.5071667200000007 11.5071667200000007  5.7535833600000004
 11.8667656800000003 11.8667656800000003  6.1131823199999999
 12.9455625600000008 12.9455625600000008  4.3151875200000003
 13.3051615200000004 13.3051615200000004  4.6747864799999999
  0.0000000000000000  2.8767916800000002 17.2607500800000011
  0.3595989600000000  3.2363906400000002 17.6203490400000007
  1.4383958400000001  4.3151875200000003 15.8223542400000010
  1.7979948000000001  4.6747864799999999 16.1819532000000024
  2.8767916800000002  5.7535833600000004 14.3839584000000009
  3.2363906400000002  6.1131823199999999 14.7435573600000005
  4.3151875200000003  7.1919792000000005 12.9455625600000008
  4.6747864799999999  7.5515781600000000 13.3051615200000004
  5.7535833600000004  8.6303750400000006 11.5071667200000007
  6.1131823199999999  8.9899740000000001 11.8667656800000003
  7.1919792000000005 10.0687708800000006 10.0687708800000006
  7.5515781600000000 10.4283698400000002 10.4283698400000002
  8.6303750400000006 11.5071667200000007  8.6303750400000006
  8.9899740000000001 11.8667656800000003  8.9899740000000001
 10.0687708800000006 12.9455625600000008  7.1919792000000005
 10.4283698400000002 13.3051615200000004  7.5515781600000000
  0.0000000000000000  5.7535833600000004 17.2607500800000011
  0.3595989600000000  6.1131823199999999 17.6203490400000007
  1.4383958400000001  7.1919792000000005 15.8223542400000010
  1.7979948000000001  7.5515781600000000 16.1819532000000024
  2.8767916800000002  8.6303750400000006 14.3839584000000009
  3.2363906400000002  8.9899740000000001 14.7435573600000005
  4.3151875200000003 10.0687708800000006 12.9455625600000008
  4.6747864799999999 10.4283698400000002 13.3051615200000004
  5.7535833600000004 11.5071667200000007 11.5071667200000007
  6.1131823199999999 11.8667656800000003 11.8667656800000003
  7.1919792000000005 12.9455625600000008 10.0687708800000006
  7.5515781600000000 13.3051615200000004 10.4283698400000002
  0.0000000000000000  8.6303750400000006 17.2607500800000011
  0.3595989600000000  8.9899740000000001 17.6203490400000007
  1.4383958400000001 10.0687708800000006 15.8223542400000010
  1.7979948000000001 10.4283698400000002 16.1819532000000024
  2.8767916800000002 11.5071667200000007 14.3839584000000009
  3.2363906400000002 11.8667656800000003 14.7435573600000005
  4.3151875200000003 12.9455625600000008 12.9455625600000008
  4.6747864799999999 13.3051615200000004 13.3051615200000004
  0.0000000000000000 11.5071667200000007 17.2607500800000011
  0.3595989600000000 11.8667656800000003 17.6203490400000007
  1.4383958400000001 12.9455625600000008 15.8223542400000010
  1.7979948000000001 13.3051615200000004 16.1819532000000024
 11.5071667200000007  0.0000000000000000  8.6303750400000006
 11.8667656800000003  0.3595989600000000  8.9899740000000001
 12.9455625600000008  1.4383958400000001  7.1919792000000005
 13.3051615200000004  1.7979948000000001  7.5515781600000000
  8.6303750400000006  0.0000000000000000 11.5071667200000007
  8.9899740000000001  0.3595989600000000 11.8667656800000003
 10.0687708800000006  1.4383958400000001 10.0687708800000006
 10.4283698400000002  1.7979948000000001 10.4283698400000002
 11.5071667200000007  2.8767916800000002  8.6303750400000006
 11.8667656800000003  3.2363906400000002  8.9899740000000001
 12.9455625600000008  4.3151875200000003  7.1919792000000005
 13.3051615200000004  4.6747864799999999  7.5515781600000000
  5.7535833600000004  0.0000000000000000 14.3839584000000009
  6.1131823199999999  0.3595989600000000 14.7435573600000005
  7.1919792000000005  1.4383958400000001 12.9455625600000008
  7.5515781600000000  1.7979948000000001 13.3051615200000004
  8.6303750400000006  2.8767916800000002 11.5071667200000007
  8.9899740000000001  3.2363906400000002 11.8667656800000003
 10.0687708800000006  4.3151875200000003 10.0687708800000006
 10.4283698400000002  4.6747864799999999 10.4283698400000002
 11.5071667200000007  5.7535833600000004  8.6303750400000006
 11.8667656800000003  6.1131823199999999  8.9899740000000001
 12.9455625600000008  7.1919792000000005  7.1919792000000005
 13.3051615200000004  7.5515781600000000  7.5515781600000000
  2.8767916800000002  0.0000000000000000 17.2607500800000011
  3.2363906400000002  0.3595989600000000 17.6203490400000007
  4.3151875200000003  1.4383958400000001 15.8223542400000010
  4.6747864799999999  1.7979948000000001 16.1819532000000024
  5.7535833600000004  2.8767916800000002 14.3839584000000009
  6.1131823199999999  3.2363906400000002 14.7435573600000005
  7.1919792000000005  4.3151875200000003 12.9455625600000008
  7.5515781600000000  4.6747864799999999 13.3051615200000004
  8.6303750400000006  5.7535833600000004 11.5071667200000007
  8.9899740000000001  6.1131823199999999 11.8667656800000003
 10.0687708800000006  7.1919792000000005 10.0687708800000006
 10.4283698400000002  7.5515781600000000 10.4283698400000002
 11.5071667200000007  8.6303750400000006  8.6303750400000006