Si 
 1.0000000000000000
     5.4600000000000000    0.0000000000000000    0.0000000000000000
     0.0000000000000000    5.4600000000000000    0.0000000000000000
     0.0000000000000000    0.0000000000000000    5.4600000000000000
 Si 
   8
Cartesian
  0.0000000000000000  0.0000000000000000  0.0000000000000000
  1.3650000000000000  1.3650000000000000  1.3650000000000000
  0.0000000000000000  2.7300000000000000  2.7300000000000000
  1.3650000000000000  4.0949999999999998  4.0949999999999998
  2.7300000000000000  0.0000000000000000  2.7300000000000000
  4.0949999999999998  1.3650000000000000  4.0949999999999998
  2.7300000000000000  2.7300000000000000  0.0000000000000000
  4.0949999999999998  4.0949999999999998  1.3650000000000000
